Rb1 Y1 Tl2 F6
1.0
   5.9053459167480478    0.0000000000000000    3.3647513389587393
   1.9508691783983059    5.5639411997763721    3.3802173137664795
   0.0000000000000000    0.0000000000000000    6.7981286048889160
Rb Y Tl F
1 1 2 6
direct
   0.9056655168533325    0.1167537420988083    0.5985919833183289 Rb
   0.4054147899150848    0.6167236566543579    0.0985676944255829 Y
   0.1556803882122040    0.3665065467357635    0.8490508198738097 Tl
   0.6554875373840332    0.8662762045860291    0.3490878343582153 Tl
   0.1812285631895066    0.8414891958236693    0.3226560056209564 F
   0.6297820210456848    0.8415009379386902    0.8735333681106566 F
   0.6302750706672667    0.3922443091869354    0.8736514449119567 F
   0.1808230429887772    0.3923637568950653    0.3226374089717865 F
   0.6300871372222899    0.3923902511596680    0.3232299983501435 F
   0.1810722053050995    0.8413019180297850    0.8740045428276061 F
