K1 Na2 Sn1 F7
1.0
   5.2116422653198233    0.0000000000000000    2.5278673171997079
   1.3721645834949627    4.8717684247404014    3.7428004741668706
   0.0000000000000000    0.0000000000000000    6.5881872177124023
K Na Sn F
1 2 1 7
direct
   0.9889767169952393    0.9588976502418518    0.5991375446319580 K
   0.4254689812660218    0.4792761504650115    0.2073277384042740 Na
   0.6901611685752869    0.8354764580726624    0.3176576495170593 Na
   0.2398888319730759    0.1862323284149170    0.8672949075698854 Sn
   0.0030691295396537    0.4778409600257873    0.5999019742012025 F
   0.0968025997281074    0.8565303683280945    0.0177080743014812 F
   0.4546395242214203    0.4791349768638611    0.5913871526718140 F
   0.5658196210861206    0.8594323992729187    0.0096781775355339 F
   0.8676826953887939    0.2449283301830292    0.1202374324202538 F
   0.4392022490501404    0.0621818974614143    0.5808184742927551 F
   0.3099281191825867    0.2503464221954346    0.1095337271690369 F
