Zr1 Pb1 F6
1.0
   4.1955733299255362    0.0000000000000000    0.5023999214172367
   2.0202839543102589    5.2936786988895452    0.4177259802818303
   0.0000000000000000    0.0000000000000000    5.7016777992248535
Zr Pb F
1 1 6
direct
   0.7649618983268737    0.7669087052345277    0.1685994565486908 Zr
   0.1482330113649368    0.1439331620931626    0.6596888899803162 Pb
   0.2560865283012390    0.8120970129966736    0.0505326129496098 F
   0.7523838281631470    0.0473994314670563    0.3976480066776276 F
   0.6439616084098816    0.0786780714988708    0.9197519421577454 F
   0.0792717710137368    0.4418170750141144    0.3199174106121063 F
   0.4450849294662476    0.7303674817085266    0.4546369314193726 F
   0.8964866995811462    0.5495515465736389    0.8734427690505981 F
