Tl2 Sb2 F8                              
   1.00000000000000     
     6.2181054011142232    0.0105718005515743    0.7810006259359780
    -0.0284275879083665    6.3488530921499180    0.0123492695380487
     0.0886044738440620   -0.0034278872843967    6.2603456209008348
   Tl   Sb   F 
     2     2     8
Direct
  0.9583636047622290  0.1946431831848970  0.3468249384898897
  0.0287612019688328  0.6936304764706051  0.8445497394083107
  0.4305127288185664  0.1927429135522714  0.8518697029061141
  0.5591870902816477  0.6935088605878730  0.3366421608563223
  0.4969223162106138  0.9431192477585558  0.5936194522077831
  0.7200836601642732  0.4734636615654694  0.1293489682208507
  0.7206700232667194  0.9151260135934421  0.1298535582659521
  0.2674352896764362  0.4129863089596434  0.0567292449943063
  0.1533299762016899  0.1921800807148430  0.7323849331946392
  0.2675969861579223  0.9720806252974948  0.0580370512239700
  0.8377820164582667  0.6940728877612572  0.4534188074318617
  0.4976423064389963  0.4419079057901205  0.5927816194407499
 
  0.00000000E+00  0.00000000E+00  0.00000000E+00
  0.00000000E+00  0.00000000E+00  0.00000000E+00
  0.00000000E+00  0.00000000E+00  0.00000000E+00
  0.00000000E+00  0.00000000E+00  0.00000000E+00
  0.00000000E+00  0.00000000E+00  0.00000000E+00
  0.00000000E+00  0.00000000E+00  0.00000000E+00
  0.00000000E+00  0.00000000E+00  0.00000000E+00
  0.00000000E+00  0.00000000E+00  0.00000000E+00
  0.00000000E+00  0.00000000E+00  0.00000000E+00
  0.00000000E+00  0.00000000E+00  0.00000000E+00
  0.00000000E+00  0.00000000E+00  0.00000000E+00
  0.00000000E+00  0.00000000E+00  0.00000000E+00
