Ca4 F8
1.0
   6.0244336128234863    0.0000000000000000   -2.0414686203002925
  -2.8929375297535405    5.1578816086136552   -2.2711966037750249
   0.0000000000000000    0.0000000000000000    6.3358745574951172
Ca F
4 8
direct
   0.7859528660774230    0.8595612049102783    0.3678674995899200 Ca
   0.2865076661109924    0.6100094318389894    0.6178997159004211 Ca
   0.7861810922622680    0.3599195182323456    0.8676344752311707 Ca
   0.2861011922359467    0.1097726598381996    0.1179031804203987 Ca
   0.9799141883850097    0.1100838407874107    0.8111178874969482 F
   0.4793051481246948    0.5531228184700012    0.3676995933055878 F
   0.0924077183008194    0.6662560701370239    0.8667266964912415 F
   0.5922372937202454    0.6090331077575684    0.9244656562805176 F
   0.9798235297203063    0.6097406744956970    0.3109051883220673 F
   0.4804513156414031    0.0535925850272179    0.8685252666473389 F
   0.0925277918577194    0.1658682674169540    0.3674980700016022 F
   0.5925220847129822    0.1099549159407616    0.4247616827487946 F
