Li2 Sb3 F11                             
   1.00000000000000     
     5.5867979692589538    0.0164810293308197   -0.0458046398725747
     0.2308433769846759    6.0603045040999213   -0.0765147059196237
     0.0153114040721324    0.0397972454358656    7.4199220608946170
   Li   Sb   F 
     2     3    11
Direct
  0.2120724014589418  0.8565852707249269  0.8832894431739653
  0.2171189155322816  0.8567775377270770  0.4193426936083574
  0.6435586819692111  0.9130510146339136  0.1509317600281985
  0.8176375662613959  0.5728589689327779  0.6502035861063166
  0.1078657095741723  0.3456404231823885  0.1526227687694846
  0.4767631391835949  0.1134751094670816  0.3296016919438375
  0.4720872124209741  0.1076927308019408  0.9709605570107278
  0.7673682799901563  0.4475161640081058  0.1532536905585372
  0.3155864647643129  0.7752101973864999  0.1513133589011469
  0.5889115313355138  0.7327240880272986  0.4693710129674216
  0.9889742776389321  0.1025967614174668  0.9767878385946356
  0.9953271525526954  0.1057780968614728  0.3294648332141567
  0.0024782563631901  0.8531349038435497  0.6532931944059206
  0.0730796958616422  0.5576181168407099  0.8832878875263662
  0.5872053710326343  0.7243580175433623  0.8332480635218166
  0.0776212991067666  0.5600990809784807  0.4189950000735832
 
  0.00000000E+00  0.00000000E+00  0.00000000E+00
  0.00000000E+00  0.00000000E+00  0.00000000E+00
  0.00000000E+00  0.00000000E+00  0.00000000E+00
  0.00000000E+00  0.00000000E+00  0.00000000E+00
  0.00000000E+00  0.00000000E+00  0.00000000E+00
  0.00000000E+00  0.00000000E+00  0.00000000E+00
  0.00000000E+00  0.00000000E+00  0.00000000E+00
  0.00000000E+00  0.00000000E+00  0.00000000E+00
  0.00000000E+00  0.00000000E+00  0.00000000E+00
  0.00000000E+00  0.00000000E+00  0.00000000E+00
  0.00000000E+00  0.00000000E+00  0.00000000E+00
  0.00000000E+00  0.00000000E+00  0.00000000E+00
  0.00000000E+00  0.00000000E+00  0.00000000E+00
  0.00000000E+00  0.00000000E+00  0.00000000E+00
  0.00000000E+00  0.00000000E+00  0.00000000E+00
  0.00000000E+00  0.00000000E+00  0.00000000E+00
