Cs2 Na1 Tm1 F6
1.0
   4.5370593070983887    0.0000000000000000    0.0001891025458468
  -0.0013130285692729    6.5852216365230341    0.0045010149478918
   0.0000000000000000    0.0000000000000000    6.6098861694335938
Cs Na Tm F
2 1 1 6
direct
   0.5397418737411499    0.4289564192295074    0.9566302895545959 Cs
   0.5393194556236267    0.9284396767616271    0.4560759067535400 Cs
   0.0394284166395664    0.4292850494384766    0.4564194083213806 Na
   0.0400596298277378    0.9287662506103516    0.9563500285148621 Tm
   0.5397135019302368    0.9287149906158447    0.9568576216697693 F
   0.0397033803164959    0.6991599798202515    0.7270384430885315 F
   0.0396257191896439    0.1585476696491241    0.7267826199531555 F
   0.0396595411002636    0.1590149104595184    0.1863391101360321 F
   0.0397689938545227    0.6989062428474425    0.1856985092163086 F
   0.5394895076751709    0.4295438826084136    0.4565536975860596 F
