Li2 Mn2 F6
1.0
   3.1747469902038574    0.0000000000000000   -0.8778686523437497
  -0.0231208952787592    5.6847903234277739   -0.0136522473767410
   0.0000000000000000    0.0000000000000000    6.3250174522399902
Li Mn F
2 2 6
direct
   0.0056304056197405    0.0195569694042206    0.9950646162033082 Li
   0.0064118900336325    0.5199247598648071    0.9959560632705690 Li
   0.3099927008152008    0.7692721486091614    0.6033013463020325 Mn
   0.7023813724517822    0.2692963778972626    0.3887004554271698 Mn
   0.1700920909643173    0.0243663731962442    0.3239305913448334 F
   0.4877490401268006    0.7697919011116029    0.9565761685371399 F
   0.8424290418624879    0.5242913961410522    0.6680938601493835 F
   0.8432619571685792    0.0139544894918799    0.6672009825706482 F
   0.1692330688238144    0.5135495066642761    0.3241785168647766 F
   0.5252016186714172    0.2693599164485931    0.0347468107938766 F
