Rb2 Ni4 F14
1.0
   6.3351650238037100    0.0000000000000000    0.0116065666079522
   3.0823118654833319    5.4363046311145116    0.0209977421909578
   0.0000000000000000    0.0000000000000000    7.9399647712707520
Rb Ni F
2 4 14
direct
   0.7091013193130493    0.4539305865764618    0.6552087068557739 Rb
   0.7078540325164795    0.4515762925148011    0.1559508591890335 Rb
   0.0171109586954117    0.7716408967971802    0.4052239954471588 Ni
   0.0194780137389898    0.8258312344551088    0.9054959416389465 Ni
   0.3985890150070190    0.0796490311622620    0.9055591821670532 Ni
   0.3985123038291931    0.1361715048551559    0.4055926501750946 Ni
   0.6746352910995483    0.1520264595746994    0.9052183628082275 F
   0.2094563841819764    0.4528819322586060    0.9060171842575073 F
   0.0188036598265171    0.7976198792457581    0.1557356417179108 F
   0.0504344403743744    0.4140950143337250    0.4038205444812775 F
   0.6759586334228516    0.7861623764038086    0.4056121408939362 F
   0.2073795497417449    0.9540148973464967    0.4052930474281311 F
   0.3980229496955872    0.1092757359147072    0.1560362875461578 F
   0.7398064136505127    0.1200314164161682    0.4060221612453461 F
   0.7423297762870789    0.7542264461517334    0.9050010442733765 F
   0.3656063377857209    0.7585102915763855    0.9063127040863037 F
   0.3957205414772034    0.1093279048800469    0.6556797027587891 F
   0.3647280037403107    0.4925273954868317    0.4064638018608093 F
   0.0513550862669945    0.1478583961725235    0.9065517187118530 F
   0.0207433141767978    0.7970553040504457    0.6551860570907593 F
