H11 O2 F7                               
   1.00000000000000     
     4.8499463176586506   -0.4737739350638726   -0.5144617253346903
    -2.7027411073196839    6.1064659268322847   -0.7029703572440721
    -0.0572624027469805    0.0811126597397514    7.4410454669955701
   H    O    F 
    11     2     7
Direct
  0.8565192265460669  0.6120787999302811  0.6828241186153502
 -0.0132247288416822  0.4429019609418909  0.8037639022378249
  0.3699411116444057  0.7185357649580650  0.3649410429507947
  0.4668818248028334  0.5148682012883683  0.0550847336445319
  0.0627989207319268  0.4627849815068428  0.5236007458084261
  0.6316743954621273  0.3152361178210741  0.6406942448293641
  0.0870035775923087  0.9583411716643822  0.6367571867329378
  0.3715169784335117  0.8866772640100512  0.2102582874393213
 -0.0138644302040585  0.2108873623081013  0.0054493116804565
  0.4099033625218302  0.9732385318721195  0.4381643602247740
  0.0881809060946500 -0.0340637927288332  0.0404767458176021
  0.4589054412185355  0.8803468051151175  0.3407093410534962
  0.8582889917559511  0.4587103468521543  0.6757329648185251
  0.8787273243980926  0.8382390954247440  0.6687766963667982
  0.3548871949705065  0.1002325411424545  0.5828096186604865
  0.6607091650442711  0.5659878046444646  0.1400132373706215
  0.2434291466691996 -0.0913127687888891  0.0293579719948340
  0.8997173210714902  0.0642207870988060  0.0610913655147800
  0.2074038503804407  0.4764860311049977  0.4384397594555055
  0.1328126780055433  0.4051894882498042  0.9338707080165609
 
  0.00000000E+00  0.00000000E+00  0.00000000E+00
  0.00000000E+00  0.00000000E+00  0.00000000E+00
  0.00000000E+00  0.00000000E+00  0.00000000E+00
  0.00000000E+00  0.00000000E+00  0.00000000E+00
  0.00000000E+00  0.00000000E+00  0.00000000E+00
  0.00000000E+00  0.00000000E+00  0.00000000E+00
  0.00000000E+00  0.00000000E+00  0.00000000E+00
  0.00000000E+00  0.00000000E+00  0.00000000E+00
  0.00000000E+00  0.00000000E+00  0.00000000E+00
  0.00000000E+00  0.00000000E+00  0.00000000E+00
  0.00000000E+00  0.00000000E+00  0.00000000E+00
  0.00000000E+00  0.00000000E+00  0.00000000E+00
  0.00000000E+00  0.00000000E+00  0.00000000E+00
  0.00000000E+00  0.00000000E+00  0.00000000E+00
  0.00000000E+00  0.00000000E+00  0.00000000E+00
  0.00000000E+00  0.00000000E+00  0.00000000E+00
  0.00000000E+00  0.00000000E+00  0.00000000E+00
  0.00000000E+00  0.00000000E+00  0.00000000E+00
  0.00000000E+00  0.00000000E+00  0.00000000E+00
  0.00000000E+00  0.00000000E+00  0.00000000E+00
