F  K  Li Zr
 1.0000000000000000
     5.8807593806818259    0.0000000000000000    0.0000000000000000
    -0.7825562140630505    6.1470664381271245    0.0000000000000000
    -0.9327999021594618    0.6578024578748879    8.5827901876597661
 F   K   Li  Zr 
  13   1   4   2
Cartesian
  2.8002020155622036  2.1926813722777920  3.9758095984976647
 -0.4491606027516435  5.2235882625147676  0.1301555931226745
  5.5304961117961646  1.4687296708104569  0.8181443760624276
  4.0401929368429039  1.0440026754151148  6.5428590636679180
  3.9984787097571259  3.3650106412758425  1.7969387693698762
  1.7374528012494845  5.0071106794652600  4.9080046375950523
 -0.6455832295239300  3.5905219614740682  7.5273661416768585
  2.4631168647302566  1.2646399404437390  0.2424842176005442
  0.3136868165409615  6.1703070874386690  6.7036217551217501
  0.9822714251904506  2.4586158173745698  6.0649684807885142
  4.5190254154752338  4.3784584441698735  4.5804324481124423
  1.2576250342714139  3.8423159190584273  2.2270309321542072
  3.0578798373188882  5.9990265087630990  2.6263956487861675
  2.4329687023099371  4.5487091259707118  7.6847048672756859
 -0.0459358872136105  3.5010820573492278  0.9434099596801707
  2.3477474482116807  1.0256647943173780  5.4158223088530120
  0.0358317645014435  4.3357578015944052  5.8228583358060080
  3.8147078831250956  1.3853822335871340  1.6299030276686963
  2.8820386458942133  4.1523599308097818  3.3998159736167168
 -0.1537659332542992  1.4983483869442640  7.6795717321510635
