F  Na P 
 1.0000000000000000
     4.7213185882300825    0.0000000000000000    0.0000000000000000
    -0.6740402327564817    4.6847582486228685    0.0000000000000000
    -0.6804282522032483   -0.7934185469168902    4.6338923195330395
 F   Na  P  
   6   1   1
Cartesian
  3.8731618836565516  0.3923109869691320  3.4532921846304951
  1.0961101333154735  2.6264180093291967  4.1636901907611854
  2.7947657506948516  0.9214968742929758  0.3340135535039520
  3.8829471979738925  4.0822416381983420  0.3258382651387156
  2.8525752024055229  2.8950657749555528  2.6604217899252656
  1.7608061225443972 -0.2761798580319390  2.6705451275097323
  0.4619693528711056  1.9029073209870264  1.5048264535291971
  2.1452924834850551  3.8503879135053336  3.8089082519693460
