Na2 Li2 Al3 F13
1.0
   5.3799834251403800    0.0000000000000000   -1.1030713319778438
  -2.0980074158049455    6.4837376293514701   -0.2815528512001033
   0.0000000000000000    0.0000000000000000    7.0584387779235840
Na Li Al F
2 2 3 13
direct
   0.2648577690124512    0.7949476242065431    0.1230980753898621 Na
   0.5633537769317627    0.0848332718014717    0.7778035402297974 Na
   0.7336883544921875    0.6019538640975952    0.8349201679229736 Li
   0.8295366764068604    0.1527964770793915    0.2999272048473358 Li
   0.2423235327005386    0.5385953783988953    0.6206257343292236 Al
   0.1588184386491776    0.2676021456718445    0.9445057511329652 Al
   0.6959081292152405    0.5999428033828735    0.3132365942001343 Al
   0.1376906186342239    0.3196341395378113    0.4588086903095246 F
   0.0504673756659031    0.6815839409828186    0.4793093502521515 F
   0.0094623863697052    0.4609323143959045    0.7867408394813538 F
   0.9670138955116272    0.0762680992484093    0.7458776831626892 F
   0.3532016575336457    0.4916491210460663    0.1346307247877121 F
   0.8479251861572266    0.6271308660507202    0.1092995256185532 F
   0.6696076393127441    0.3477361798286438    0.3606143295764923 F
   0.3334339559078217    0.1024907156825066    0.0326820835471153 F
   0.5576122999191284    0.6215040087699890    0.5374417901039124 F
   0.6798639893531800    0.8598874807357789    0.2992002665996552 F
   0.8920427560806274    0.2036511898040771    0.0560657717287541 F
   0.4140170812606812    0.3771627247333527    0.7968043088912964 F
   0.4139164090156555    0.7516732811927795    0.8071881532669067 F
