Nd1 Sm1 F6
1.0
   5.5990200042724609    0.0000000000000000    3.2439930438995361
   1.8719611582918092    5.2802375728482236    3.2439563274383540
   0.0000000000000000    0.0000000000000000    6.4768276214599609
Nd Sm F
1 1 6
direct
   0.0157702676951885    0.7121566534042358    0.8843737840652467 Nd
   0.5131782293319702    0.2100458294153213    0.3861237764358521 Sm
   0.2657661437988281    0.4584673643112183    0.1374965161085129 F
   0.2656503021717072    0.4588894844055176    0.6324636340141296 F
   0.7611008882522583    0.9628167748451233    0.6325337886810303 F
   0.2657265663146973    0.9631954431533812    0.6339654326438904 F
   0.7607468962669373    0.9625385999679565    0.1388444751501083 F
   0.7627000212669373    0.4578951597213745    0.1361818015575409 F
