B  F  K  Li
 1.0000000000000000
     5.5919175453135175    0.0000000000000000    0.0000000000000000
     1.3862968943615159    6.9901592839171443    0.0000000000000000
     0.9495682345925477    2.2860064462839351    8.5511201019780021
 B   F   K   Li 
   2  12   4   2
Cartesian
  5.0758635046152545  7.5365392285268396  2.5867011702362790
  5.5304346231394623  7.0545050062899088  7.1982664240496259
  5.9701886092367538  2.8178281675972729  4.8393171266037180
  4.0236635274593375  1.2234205990837275  1.3790193251308205
  3.2395017081497781  4.7779906621628045  4.9222441356397839
  4.3998970915796249  7.8313492052837592  6.7773265571598156
  6.6341763148854653  7.9498900781059900  7.4518221940660236
  3.9725024195684218  6.6467052775219502  2.3398709681153935
  1.4944583766172812  3.8966027620802248  1.7563979453885477
  5.9260960151673387  6.1353590117065862  6.2058951322743088
  6.2088355183273931  6.7675400936951187  3.0091841129325125
  2.1400316834220035  3.7169168731149727  8.0138213610246378
  5.1887711320794043  6.3853086986598626  8.4044996127683618
  3.2851714664027907  1.4696528636738657  3.5771188337486661
  4.6410818929228794  3.7006043398138164  6.9465027116832339
  2.5055690018799552  7.2955620709991340  4.8900523378086698
  4.5652062263967821  3.8926933987074803  2.8151194580941632
  2.0331673063607592  6.1573093279865638  0.6102448782818147
  1.8083863855556774  3.7907172467705004  4.8786960134344595
  1.3423726890048766  2.6675729639625199  0.6122094010931716
