Cs2 Li1 Zn1 F5
1.0
   5.2329478263854980    0.0000000000000000   -2.8029146194458003
  -3.4096883417835215    4.8183976607829635    0.4822587370872503
   0.0000000000000000    0.0000000000000000    6.9593014717102051
Cs Li Zn F
2 1 1 5
direct
   0.1540927588939666    0.8994453549385070    0.1868182718753815 Cs
   0.6989108920097351    0.6982086300849915    0.5278997421264648 Cs
   0.2295323461294174    0.4892770051956177    0.8526056408882140 Li
   0.6267902255058289    0.1087265834212303    0.8692680597305297 Zn
   0.0879150032997131    0.3697020113468170    0.0843258127570152 F
   0.4279898405075073    0.2986791729927063    0.8595762848854064 F
   0.5802382826805115    0.8622035384178162    0.0837795361876488 F
   0.7631639838218689    0.2292015552520752    0.6386085152626038 F
   0.2760508954524994    0.7431837916374207    0.6398055553436279 F
