Ba3 Pr1 F8                              
   1.00000000000000     
     4.3042654576803052   -0.0087951179841501    0.0216840188424605
     0.0159376805676015    6.2418130087534864    0.0132190056777877
    -0.0386323790195697   -0.0188639673446667    8.7527990123530994
   Ba   Pr   F 
     3     1     8
Direct
  0.6355196462514197  0.4768549471789181  0.6448158387119675
  0.6364846756618442  0.4770013692806001  0.1746730042200485
  0.1363807328195156  0.9770616155568207  0.9097202293837930
  0.1364464109425901  0.9768964723685889  0.4097704833729911
  0.6366909233028006  0.1785909918687535  0.4097051874745765
  0.1366952544460871  0.1977519374693389  0.1736233632336149
  0.1353452050429569  0.1973450985180493  0.6458792690712123
  0.1360337954968503  0.7564742272608822  0.1736533595781046
  0.1356100731718795  0.7559915025542661  0.6460292869066723
  0.6363021212289813  0.2355980100677567  0.9097968633786481
  0.6365034329282213  0.7760905358040386  0.4099002066285615
  0.6372748645463157  0.7194208764578591  0.9096193619782944
 
  0.00000000E+00  0.00000000E+00  0.00000000E+00
  0.00000000E+00  0.00000000E+00  0.00000000E+00
  0.00000000E+00  0.00000000E+00  0.00000000E+00
  0.00000000E+00  0.00000000E+00  0.00000000E+00
  0.00000000E+00  0.00000000E+00  0.00000000E+00
  0.00000000E+00  0.00000000E+00  0.00000000E+00
  0.00000000E+00  0.00000000E+00  0.00000000E+00
  0.00000000E+00  0.00000000E+00  0.00000000E+00
  0.00000000E+00  0.00000000E+00  0.00000000E+00
  0.00000000E+00  0.00000000E+00  0.00000000E+00
  0.00000000E+00  0.00000000E+00  0.00000000E+00
  0.00000000E+00  0.00000000E+00  0.00000000E+00
