Li2 Nd1 Tl3 F8
1.0
   6.1593012809753418    0.0000000000000000    0.0030292298179117
  -3.0791976847744986    5.3405477985939731   -0.0051745856180781
   0.0000000000000000    0.0000000000000000    8.0187101364135742
Li Nd Tl F
2 1 3 8
direct
   0.8703341484069823    0.0638749524950981    0.7212218642234802 Li
   0.2034182250499725    0.7314242720603943    0.2785097360610962 Li
   0.5372861623764038    0.3974957168102264    0.0001933574676514 Nd
   0.5371522903442383    0.3983511626720428    0.4994102716445923 Tl
   0.2037917524576187    0.7304345965385437    0.8045715689659119 Tl
   0.8703901767730712    0.0641312748193741    0.1958613097667694 Tl
   0.2040169686079025    0.7318552136421204    0.5091537237167358 F
   0.7047747969627380    0.2296283841133118    0.8217430114746094 F
   0.2015475481748581    0.2294943779706955    0.8217303752899170 F
   0.3699571490287781    0.5658607482910156    0.1779368519783020 F
   0.8728814125061034    0.5658710002899170    0.1776954531669616 F
   0.7053862214088440    0.7337666153907776    0.8226196765899658 F
   0.8706918954849242    0.0647556930780411    0.4910998344421387 F
   0.3692224025726318    0.0615137405693531    0.1778655648231506 F
