Na1 H1 F2
1.0
   3.1430296897888184    0.0000000000000000   -1.1760759353637691
   1.3621006727559581    2.8372834856150382   -1.1680392026901245
   0.0000000000000000    0.0000000000000000    4.9335584640502930
Na H F
1 1 2
direct
   0.9231444597244263    0.6136783361434937    0.3813291490077972 Na
   0.4231445193290710    0.1141795665025711    0.8804149627685546 H
   0.3411879837512971    0.0323102138936520    0.6340859532356262 F
   0.5040460228919983    0.1951743811368942    0.1281383931636810 F
