Li1 Sb2 F7                              
   1.00000000000000     
     5.4157231161453465   -0.1381390418412415    1.0059346722347930
     0.7948461471171120    5.6011500728773607    1.2813603920186305
    -0.0044611733732188    0.0977891060517825    5.7990849853964219
   Li   Sb   F 
     1     2     7
Direct
  0.3963640043958310 -0.0336978816747415  0.1895849256385725
  0.6327256823010643  0.3544188897936954  0.5079915584728810
  0.0277198731790406  0.7555066202808609  0.8447867530039348
  0.8856999475433063  0.4666887570858699  0.2352387817255497
  0.8027934332576339  0.5845044666316838  0.6732899958428843
  0.0097737955045553  0.0176188257752974  0.5518255130296624
  0.1616654438260813 -0.0024875702571124  0.9831502299292905
  0.6972973426317702  0.9012827573278326  0.9651962817745661
  0.4872571702243493  0.2333294488185215  0.2666065916076398
  0.4102292342478742  0.6606678629034258  0.4189580265544412
 
  0.00000000E+00  0.00000000E+00  0.00000000E+00
  0.00000000E+00  0.00000000E+00  0.00000000E+00
  0.00000000E+00  0.00000000E+00  0.00000000E+00
  0.00000000E+00  0.00000000E+00  0.00000000E+00
  0.00000000E+00  0.00000000E+00  0.00000000E+00
  0.00000000E+00  0.00000000E+00  0.00000000E+00
  0.00000000E+00  0.00000000E+00  0.00000000E+00
  0.00000000E+00  0.00000000E+00  0.00000000E+00
  0.00000000E+00  0.00000000E+00  0.00000000E+00
  0.00000000E+00  0.00000000E+00  0.00000000E+00
