Cs2 Na1 Fe1 F6
1.0
   4.1867442131042480    0.0000000000000000   -3.3124105930328369
  -0.0427974345244869    6.2323278605311367   -0.0563916638493538
   0.0000000000000000    0.0000000000000000    6.5935244560241699
Cs Na Fe F
2 1 1 6
direct
   0.0472372993826866    0.6392027139663696    0.3097238838672638 Cs
   0.0821873843669891    0.6395029425621033    0.8264608383178711 Cs
   0.5637280941009521    0.1386143267154694    0.0681709051132202 Na
   0.5634863376617432    0.1390665769577026    0.5666662454605103 Fe
   0.0156821608543396    0.1391021162271500    0.7938227653503418 F
   0.5633880496025085    0.3640077710151672    0.3487480580806732 F
   0.1121417880058289    0.1391373127698898    0.3413621187210083 F
   0.5621963143348694    0.9147299528121948    0.7846058011054993 F
   0.5621946454048157    0.3641673326492310    0.7864122390747070 F
   0.5633929967880249    0.9135491847991943    0.3464671671390533 F
