Rb2 Na1 Al1 F6
1.0
   5.0986013412475586    0.0000000000000000   -0.0129014262929562
  -1.2672282326800537    4.9375411930797091   -0.0311471056193106
   0.0000000000000000    0.0000000000000000    5.7903518676757812
Rb Na Al F
2 1 1 6
direct
   0.1613774895668030    0.8598757386207579    0.3344153165817261 Rb
   0.6437404155731201    0.3786989152431488    0.3331958651542664 Rb
   0.4030272662639618    0.6186528205871582    0.8338404893875121 Na
   0.9022266864776610    0.1197108551859856    0.8341727256774901 Al
   0.1140772327780723    0.3303138017654419    0.6046311855316162 F
   0.6913132071495056    0.9079530239105225    0.0635356381535530 F
   0.1220913082361221    0.8995683193206786    0.8333604931831359 F
   0.1151255369186401    0.3316311538219452    0.0640182644128799 F
   0.6835777759552002    0.3388995826244354    0.8340167999267577 F
   0.6909729838371277    0.9067792892456055    0.6038873195648193 F
