Sr2 Ta2 O6 F2                           
   1.00000000000000     
     3.9310436299164224    0.0140702666492177   -0.0095761774650109
     1.9441147460963635    5.8779344880668436   -0.0124188098053094
     0.0172844872084018    0.0070578066113700    7.6182101005131910
   Sr   Ta   O    F 
     2     2     6     2
Direct
  0.7520727756083926  0.0154737776875300  0.5220480527918820
  0.2152127434993305  0.0877996974175578  0.0217681938829534
  0.4968411910394563  0.5267996959640346  0.7690919901134775
  0.4719468562235218  0.5764759055528049  0.2692162903132914
  0.6485246595955776  0.2218710599555476  0.8344060954885087
  0.5344489711762853  0.4516345053869096  0.5138249066997542
  0.4339976776732444  0.6512182875790707  0.0138756837009896
  0.9727676730086190  0.5748594526225254  0.7559544277219161
  0.9954732120514148  0.5283507683117012  0.2560050289487580
  0.3189460685281625  0.8814381603107543  0.3347015587957097
  0.3107866224571006  0.8975729011899473  0.7049053578794997
  0.6567117172430664  0.2058162639074843  0.2046032327338977
 
  0.00000000E+00  0.00000000E+00  0.00000000E+00
  0.00000000E+00  0.00000000E+00  0.00000000E+00
  0.00000000E+00  0.00000000E+00  0.00000000E+00
  0.00000000E+00  0.00000000E+00  0.00000000E+00
  0.00000000E+00  0.00000000E+00  0.00000000E+00
  0.00000000E+00  0.00000000E+00  0.00000000E+00
  0.00000000E+00  0.00000000E+00  0.00000000E+00
  0.00000000E+00  0.00000000E+00  0.00000000E+00
  0.00000000E+00  0.00000000E+00  0.00000000E+00
  0.00000000E+00  0.00000000E+00  0.00000000E+00
  0.00000000E+00  0.00000000E+00  0.00000000E+00
  0.00000000E+00  0.00000000E+00  0.00000000E+00
