Na1 Ho2 Zr2 F15                         
   1.00000000000000     
     6.2934164903852388    0.0561195383191731    2.3464117556452115
    -0.1710421285186541    5.7119657234827823    1.0463065433336269
    -0.0246650277091381   -0.0065657261662802    7.8374382451084585
   Na   Ho   Zr   F 
     1     2     2    15
Direct
  0.4190170477194419  0.6691032299785081  0.5748462761299473
  0.2396663932128135  0.0886273476551488  0.9731429443300148
  0.9791690752223060  0.4907962739522916  0.3869485813784913
  0.6097167625449234  0.2541488357910854  0.1785042877103648
  0.8624547899387265  0.8372913183652305  0.7611153127390398
  0.0971029788447726  0.7337773936820458  0.5314308388408246
  0.9131343985135781  0.1512078218335030  0.5871531965206199
  0.4005691073066266  0.9921593367677043  0.1913568420237879
  0.6250746354473070  0.0114451594251767  0.3856013755521729
  0.8161442288285226  0.0667960125760220  0.9731917004830530
  0.7876692775170626  0.5683525795172814  0.9826115674431256
  0.2274449703999062  0.3463444817207964  0.7544426766278715
  0.1494695114663718  0.8640127573842471  0.7977700306045499
  0.6652732670475258  0.4757588957824542  0.3497073190578769
  0.5488186526957213  0.9256748508738273  0.8251298857424499
  0.9891004574009631  0.2687528935274659  0.1739717015093251
  0.4730702093852329  0.3570347985073066  0.9736195841252064
  0.7358578988772646  0.6167412506156906  0.6363938321380807
  0.3153602588898298  0.3891846654020420  0.3207926758166904
  0.0618088508804154  0.7773015758187527  0.1672090572864594
 
  0.00000000E+00  0.00000000E+00  0.00000000E+00
  0.00000000E+00  0.00000000E+00  0.00000000E+00
  0.00000000E+00  0.00000000E+00  0.00000000E+00
  0.00000000E+00  0.00000000E+00  0.00000000E+00
  0.00000000E+00  0.00000000E+00  0.00000000E+00
  0.00000000E+00  0.00000000E+00  0.00000000E+00
  0.00000000E+00  0.00000000E+00  0.00000000E+00
  0.00000000E+00  0.00000000E+00  0.00000000E+00
  0.00000000E+00  0.00000000E+00  0.00000000E+00
  0.00000000E+00  0.00000000E+00  0.00000000E+00
  0.00000000E+00  0.00000000E+00  0.00000000E+00
  0.00000000E+00  0.00000000E+00  0.00000000E+00
  0.00000000E+00  0.00000000E+00  0.00000000E+00
  0.00000000E+00  0.00000000E+00  0.00000000E+00
  0.00000000E+00  0.00000000E+00  0.00000000E+00
  0.00000000E+00  0.00000000E+00  0.00000000E+00
  0.00000000E+00  0.00000000E+00  0.00000000E+00
  0.00000000E+00  0.00000000E+00  0.00000000E+00
  0.00000000E+00  0.00000000E+00  0.00000000E+00
  0.00000000E+00  0.00000000E+00  0.00000000E+00
