Li3 Sb1 F6
1.0
   5.3667664527893058    0.0000000000000000   -0.7469440698623658
  -3.1909088215175818    4.3515717499394011   -0.7391704916954035
   0.0000000000000000    0.0000000000000000    5.0923590660095215
Li Sb F
3 1 6
direct
   0.5909261107444763    0.5234134197235107    0.9635695219039916 Li
   0.1033330783247948    0.0133996801450849    0.4633091986179351 Li
   0.3980830311775208    0.7149175405502319    0.4661987721920013 Li
   0.8929991126060486    0.2186740040779114    0.9646901488304137 Sb
   0.2004419714212418    0.4212318062782288    0.7090160250663757 F
   0.8006414175033569    0.8194339871406556    0.7221905589103699 F
   0.6938164830207825    0.9119643568992615    0.2205769121646881 F
   0.4781893193721771    0.1058836281299591    0.7008857727050781 F
   0.2951570451259614    0.3122032880783082    0.2060353457927704 F
   0.0108784744516015    0.6362856030464172    0.2287604063749313 F
