K2 Ta1 F7
1.0
   6.0638470649719238    0.0000000000000000    2.5426638126373287
   1.8597753923774865    5.7534958920792656    2.7089018821716309
   0.0000000000000000    0.0000000000000000    6.5628585815429688
K Ta F
2 1 7
direct
   0.7441937327384949    0.3091941475868225    0.9414585828781129 K
   0.1486704051494599    0.7563996911048889    0.3457621335983276 K
   0.4144512116909027    0.0885469466447830    0.6124949455261230 Ta
   0.5463987588882446    0.2075434029102325    0.7495583891868591 F
   0.7261754274368286    0.9947960376739502    0.3876383900642395 F
   0.5792306661605836    0.7642823457717896    0.7779321670532227 F
   0.1176983863115311    0.3638762533664703    0.6399787664413452 F
   0.4440108835697174    0.3633072376251221    0.3174279928207397 F
   0.1870613545179367    0.9985795617103577    0.9239834547042848 F
   0.2824204266071319    0.9696512222290039    0.4788907766342164 F
