Rb3 Dy1 F6
1.0
   5.9079074859619141    0.0000000000000000    1.1937712430953975
  -1.3397386280520611    5.7996413159762810    1.1796506643295279
   0.0000000000000000    0.0000000000000000    6.3914723396301270
Rb Dy F
3 1 6
direct
   0.9466621279716492    0.8465875983238221    0.9284556508064270 Rb
   0.4461121857166290    0.8474691510200502    0.4283870756626129 Rb
   0.9458889961242676    0.3484034240245819    0.4279390871524811 Rb
   0.4456696510314941    0.3485378623008729    0.9273493885993958 Dy
   0.1891027092933655    0.4193486869335175    0.7443085312843323 F
   0.7025447487831116    0.2739623188972473    0.1113652661442757 F
   0.1815382391214371    0.0849909186363220    0.1888643801212311 F
   0.7125912308692932    0.6113862991333008    0.6686596870422363 F
   0.5198821425437927    0.0899331420660019    0.7457489371299744 F
   0.3731573522090912    0.6058502197265626    0.1086352691054344 F
