Ag B  F 
 1.0000000000000000
     5.7911196475017581    0.0000000000000000    0.0000000000000000
    -1.1281999024887848    5.1593061221675676    0.0000000000000000
    -1.0807343998684447   -0.7465561182191629    5.7492523635975212
 Ag  B   F  
   1   2   7
Cartesian
  1.1563598335908500  5.0453404076988404  0.4162764337798411
 -0.4079060270960784  1.6086678893635127  0.3044803034475032
  2.5744820301848654  4.2630719367539225  3.7310549994486246
  1.7004105696090879  3.5894537346390774  4.6147592597361804
  4.5109136067158344  0.2460483859033571  4.5599191507305381
  0.1149919953075675  0.6230321452423631  1.1347915800095099
  3.5671506487467650  3.4409609629682589  3.3098328484484130
  4.0428950596451125  1.8600998286016470  0.4632276999640163
  0.4467627786096871  2.6960239573631126  0.3339839082263198
  3.0157531661855281 -0.1968383153295255  2.7609557728927649
