F  In Rb
 1.0000000000000000
     5.7970079266482344    0.0000000000000000    0.0000000000000000
    -0.1583729762243023    5.6061427306073970    0.0000000000000000
    -0.1218851908981300    2.7543327212888054    5.1940568740835928
 F   In  Rb 
   7   2   1
Cartesian
  2.7296490994538938  3.8890886199471999  1.5056750717319161
  0.1463300645902469  3.5851089043926523  1.1954951558286233
  2.7654283970483320  1.0906462100255601  1.2664943397876431
  2.3318443027441544  7.0571699039594966  3.9998856021286588
  1.5949341358377442  3.9373700197188066  3.9593503753879693
  0.0656756451250889  6.3914582246469251  1.6094883099534474
  5.6501169013900636  2.1474772715708093  4.0007735060046574
  1.3423548926592097  5.2105810624122837  0.3888551883091298
  1.4373897561911173  2.4006895283520473  2.4037768395284358
  4.2852049678936055  5.0827007662787809  4.0032003813477388
