Na1 Dy2 F7                              
   1.00000000000000     
     4.6443225897044664   -0.2271486427821133    1.5026127730437284
    -0.9410981519738874    4.9349621264308778    2.1760245820936204
     0.1976197651400189   -0.0028698167575437    6.5792502034083657
   Na   Dy   F 
     1     2     7
Direct
  0.3469055262170472  0.3061873625356398  0.8627934431522450
  0.6063952028512666  0.6480274765119868  0.1994821861982752
  0.0912130113739478  0.9647329738615030  0.5229001656299135
  0.2550235178116729  0.5991329727263606  0.5707579132817910
  0.1616896776651661  0.3972241438924526  0.2507945205498747
  0.6739121249596212  0.6480228217495814  0.8437937209198146
  0.0253064025861583  0.9632056054410825  0.8783303549387975
  0.5351309295828282  0.2162713084333767  0.4715594620771369
  0.4454644233540754  0.0151452336985745  0.1523884438137272
  0.8501998004860247  0.8046939206380274  0.3611819602586605
 
  0.00000000E+00  0.00000000E+00  0.00000000E+00
  0.00000000E+00  0.00000000E+00  0.00000000E+00
  0.00000000E+00  0.00000000E+00  0.00000000E+00
  0.00000000E+00  0.00000000E+00  0.00000000E+00
  0.00000000E+00  0.00000000E+00  0.00000000E+00
  0.00000000E+00  0.00000000E+00  0.00000000E+00
  0.00000000E+00  0.00000000E+00  0.00000000E+00
  0.00000000E+00  0.00000000E+00  0.00000000E+00
  0.00000000E+00  0.00000000E+00  0.00000000E+00
  0.00000000E+00  0.00000000E+00  0.00000000E+00
