Rb2 Na3 F5                              
   1.00000000000000     
     5.4992040596781449    0.0464135889163003   -3.0077370119109941
    -0.2620892097479169    5.7732168411172875   -3.1528107729473271
    -0.0541745305292867    0.0430481867862594    6.2069663992945809
   Rb   Na   F 
     2     3     5
Direct
  0.2074222346976459  0.4917869550377042  0.4411496498365240
  0.8651556652125205  0.8981231043401471  0.0410297900425785
  0.5736015444810636  0.0523249756920177  0.4390642532097162
  0.5820369174146155  0.4801206324294625  0.0690345277377680
  0.1717036294913396  0.0610579321384493  0.8156405981303425
  0.5177863009096488  0.2669350086766643  0.2179343601289589
  0.2709322061105881  0.1229853028898546  0.5536203371268534
  0.3485791026619100  0.7736306547465097  0.9771778139349401
  0.8523496966463076  0.7878324702039118  0.4373802583686453
  0.8542144180058453  0.2674848486943502  0.9076390887432376
 
  0.00000000E+00  0.00000000E+00  0.00000000E+00
  0.00000000E+00  0.00000000E+00  0.00000000E+00
  0.00000000E+00  0.00000000E+00  0.00000000E+00
  0.00000000E+00  0.00000000E+00  0.00000000E+00
  0.00000000E+00  0.00000000E+00  0.00000000E+00
  0.00000000E+00  0.00000000E+00  0.00000000E+00
  0.00000000E+00  0.00000000E+00  0.00000000E+00
  0.00000000E+00  0.00000000E+00  0.00000000E+00
  0.00000000E+00  0.00000000E+00  0.00000000E+00
  0.00000000E+00  0.00000000E+00  0.00000000E+00
