Nd2 Tl2 F8
1.0
   5.1035146713256836    0.0000000000000000   -0.0266045890748513
  -0.0013655398297940    6.2339461738346928   -0.0054348884150383
   0.0000000000000000    0.0000000000000000    6.4538860321044922
Nd Tl F
2 2 8
direct
   0.7836518883705139    0.1835412383079529    0.2153415977954865 Nd
   0.7838652133941650    0.6835908293724060    0.6396188139915466 Nd
   0.2834269106388092    0.1817450821399689    0.7096768021583557 Tl
   0.2834089696407318    0.6806777715682985    0.1466625034809113 Tl
   0.0133362505584955    0.4337351322174072    0.4250953197479248 F
   0.0128436833620071    0.9315606951713563    0.4245121777057648 F
   0.5541902184486389    0.4315941333770752    0.4290517270565033 F
   0.2863090336322784    0.1851862967014313    0.1256963163614273 F
   0.7838566303253174    0.9326053857803346    0.9275366663932800 F
   0.2823049128055573    0.6852844357490540    0.7307125926017761 F
   0.5532664060592651    0.9345452189445497    0.4329747259616852 F
   0.7844883203506470    0.4328570365905762    0.9279085397720337 F
