Na3 Li1 Cr1 F7
1.0
   5.2072119712829590    0.0000000000000000    1.4697723388671873
  -3.6836788622538847    5.6426979632619645   -0.5385009050369272
   0.0000000000000000    0.0000000000000000    5.9454855918884277
Na Li Cr F
3 1 1 7
direct
   0.1176587045192719    0.5748689174652100    0.5441533923149109 Na
   0.3714980781078339    0.1395390927791595    0.6865330338478088 Na
   0.5401225686073303    0.0062900986522436    0.1227845549583435 Na
   0.8237743973731996    0.7306362390518188    0.2782316505908966 Li
   0.1335223764181137    0.4526169300079346    0.9954302310943605 Cr
   0.8010928034782410    0.2833692729473114    0.8267100453376771 F
   0.8101347684860231    0.3860458433628082    0.2906095385551453 F
   0.0605131201446056    0.1437073200941086    0.0584093928337097 F
   0.4337869584560395    0.5159720778465271    0.6868430376052856 F
   0.1599157303571702    0.8925783038139344    0.4377622902393342 F
   0.4425913989543915    0.6300007700920105    0.1735808104276657 F
   0.1729983687400818    0.7532103657722473    0.9299950003623964 F
