Mg1 Mn1 F4
1.0
   4.0871481895446777    0.0000000000000000    0.0070597343146806
  -2.0136481419852004    5.1210345676036715   -2.0450971126556392
   0.0000000000000000    0.0000000000000000    4.1023526191711426
Mg Mn F
1 1 4
direct
   0.8631429672241211    0.0595222264528274    0.0531318672001362 Mg
   0.6129615306854248    0.5597394108772278    0.3023464381694793 Mn
   0.6621301770210266    0.6618282198905945    0.8532928824424744 F
   0.0625109523534774    0.4584491550922393    0.2534251213073730 F
   0.8290579915046692    0.9926258325576782    0.5185826420783997 F
   0.3959936201572418    0.1265588998794556    0.0864063128829002 F
