Cs1 K3 F4
1.0
   3.9564950466156006    0.0000000000000000   -0.0025984984822570
   1.9769624616527162    6.4641058715388331    1.1551418304443357
   0.0000000000000000    0.0000000000000000    6.9136204719543457
Cs K F
1 3 4
direct
   0.5851954221725464    0.3103336393833160    0.3100251257419586 Cs
   0.0855632573366165    0.3103588819503784    0.8100314736366272 K
   0.8346168398857118    0.8106517195701598    0.0528165474534035 K
   0.3348803520202637    0.8101314902305603    0.5654481053352355 K
   0.7125605940818787    0.0560738965868950    0.7017728686332703 F
   0.2215424031019211    0.0378352366387844    0.1687890887260437 F
   0.9496023654937745    0.5829441547393799    0.4515312612056732 F
   0.4585536420345307    0.5638658404350280    0.9183107018470765 F
