Cs1 Sb2 F11
1.0
   5.7543911933898926    0.0000000000000000    2.2325072288513192
  -0.9246761761385184    5.6594163226214231    2.2830781936645508
   0.0000000000000000    0.0000000000000000    8.2995319366455078
Cs Sb F
1 2 11
direct
   0.3385919332504272    0.1271008253097534    0.5454073548316956 Cs
   0.6992175579071045    0.4889291822910309    0.8271812796592712 Sb
   0.9774748682975769    0.7661127448081970    0.2655872702598572 Sb
   0.8384185433387756    0.6292697191238403    0.5464702844619751 F
   0.4949389994144440    0.2850074172019958    0.8043383359909058 F
   0.1813827008008957    0.5395486354827881    0.2903715968132019 F
   0.4945024251937866    0.7160934209823608    0.8033661246299744 F
   0.7504253387451172    0.9731971621513366    0.2878570854663849 F
   0.9262132048606873    0.2826595902442932    0.8049753904342651 F
   0.1079915240406990    0.8955103754997252    0.0063326382078230 F
   0.5679613947868347    0.3588327169418335    0.0868555754423141 F
   0.1815543174743652    0.9709506034851073    0.2885147035121918 F
   0.9252728223800659    0.7160897254943847    0.8042118549346924 F
   0.7497555613517761    0.5399687290191649    0.2899684309959412 F
