Be F  Pb
 1.0000000000000000
     5.5954599218238021    0.0000000000000000    0.0000000000000000
     1.8232241319123523    6.9952808137529034    0.0000000000000000
     0.1784997103799056    1.3515113015482856    5.4319025109018728
 Be  F   Pb 
   1   8   3
Cartesian
  2.2081525638194202  1.1082409552736483  2.5384523578117664
  1.1312900286719816  2.2684949952803115  2.7783235996536457
  3.5784363886161938  1.6322735817938137  3.1179343863346944
  6.7121067452503453  6.2034447188654589  1.5892469806170846
  4.5284321489859689  4.1221393375617694  1.9284155020957365
  3.5048236443175287  6.8281062380196360  3.2824965411538338
  2.3829176789177406  0.8499215269440592  1.0079521827909217
  1.1773242618796165  4.9777676241296822  5.3151885297294310
  4.0598569544681133  4.6216728790035742  4.8623015158430318
  4.9982426195773151  1.8575427574412988  1.0982058513252466
  5.0714346802621977  5.4210264095259060  0.0275196719586499
  2.3735857035942289  4.6312033820081488  3.1671048228559067
