K2 Sb2 F8
1.0
   5.7849297523498535    0.0000000000000000   -0.0182600021362300
  -0.0019531620213757    6.2791978659400103   -0.0040124426595869
   0.0000000000000000    0.0000000000000000    6.2950205802917480
K Sb F
2 2 8
direct
   0.1803863942623138    0.5116465091705322    0.5446234345436096 K
   0.1751185357570648    0.0142107540741563    0.0434642769396305 K
   0.6232808232307434    0.5186557769775391    0.0439700633287430 Sb
   0.7348622679710388    0.0134769445285201    0.5442780852317810 Sb
   0.3736841976642609    0.6744958162307740    0.8850086927413940 F
   0.8323164582252502    0.2415281534194946    0.3128905594348907 F
   0.9937032461166382    0.1673606783151627    0.6969717741012573 F
   0.3702724575996399    0.3598298132419587    0.1968287378549576 F
   0.5351647138595581    0.2860198616981507    0.8127105236053467 F
   0.8341901898384094    0.7823405265808105    0.7746858000755310 F
   0.9779217839241028    0.8509577512741089    0.3839020431041718 F
   0.5164707899093628    0.7482442855834961    0.2738294005393982 F
