Al2 O2 F2
1.0
   2.9389803409576416    0.0000000000000000   -0.0062332819215953
  -0.0030080451168112    4.5284237407776047    0.0036080286372451
   0.0000000000000000    0.0000000000000000    4.4926686286926270
Al O F
2 2 2
direct
   0.5915025472640991    0.3021664321422577    0.0501852855086327 Al
   0.0904352217912674    0.8022570610046387    0.6313665509223938 Al
   0.5912679433822632    0.9937911033630371    0.7855686545372009 O
   0.0910289809107780    0.4935643970966340    0.8979442715644836 O
   0.0913141891360283    0.1018762364983559    0.2877905964851379 F
   0.5903274416923523    0.6014762520790100    0.3947216272354126 F
