Na3 Y1 F6
1.0
   3.5079476833343501    0.0000000000000000    0.0011770232813438
  -1.7369948916522018    6.7900739274002797   -0.2074784338474273
   0.0000000000000000    0.0000000000000000    5.7881226539611816
Na Y F
3 1 6
direct
   0.3975132703781128    0.1882244795560837    0.2914537489414215 Na
   0.0311337653547525    0.4553187191486358    0.7104537487030029 Na
   0.1087253615260124    0.6108797788619995    0.2350167781114578 Na
   0.7666259407997131    0.9287447929382324    0.8170190453529357 Y
   0.8711469769477844    0.1359787583351135    0.5385050177574158 F
   0.2617723643779755    0.9172584414482117    0.0601313598453998 F
   0.6117637753486633    0.6182088255882262    0.9404558539390563 F
   0.5481443405151367    0.4882712960243225    0.4383453726768493 F
   0.9165385961532593    0.2238435596227646    0.0115688908845186 F
   0.2103809714317322    0.8135521411895752    0.6093988418579102 F
