Ce1 F3                                  
   1.00000000000000     
     4.2950993624058720    0.0019415920630711   -0.0081249347192589
     2.1467790119226819    3.7346664006666002   -0.0090197264185741
    -0.0027885083267997    0.0013279322737599    4.6427316038551973
   Ce   F 
     1     3
Direct
  0.3024056027222716  0.6217517073535913  0.7388104935127439
  0.6355540997614736  0.9552527722299412  0.7400824084471703
  0.9684124511289466  0.2894044385862604  0.7394950159222003
  0.3018344999822790  0.6217307111942280  0.2386231708467901
 
  0.00000000E+00  0.00000000E+00  0.00000000E+00
  0.00000000E+00  0.00000000E+00  0.00000000E+00
  0.00000000E+00  0.00000000E+00  0.00000000E+00
  0.00000000E+00  0.00000000E+00  0.00000000E+00
