Li2 Sb1 F5
1.0
   4.9659919738769540    0.0000000000000000    1.5895397663116451
  -1.5525046764013828    4.9137366488667107   -0.2774064242839810
   0.0000000000000000    0.0000000000000000    5.1766376495361328
Li Sb F
2 1 5
direct
   0.8564246892929077    0.0446835011243820    0.8943819403648376 Li
   0.3142063915729523    0.8789740800857545    0.0562361963093281 Li
   0.6006869077682495    0.4995516538619996    0.4386561810970306 Sb
   0.2105595767498016    0.2480187714099884    0.6844685077667236 F
   0.5752966403961182    0.8300371170043945    0.7153787612915039 F
   0.5795677900314331    0.2188275903463364    0.1077705025672913 F
   0.3435614109039307    0.6268708109855653    0.2988415062427521 F
   0.9178885221481323    0.8131808638572694    0.1259304732084274 F
