K1 Rb1 Li1 Mo1 F6
1.0
   5.1708965301513672    0.0000000000000000    2.9814662933349614
   1.7131606699072406    4.8793634784680560    2.9813666343688974
   0.0000000000000000    0.0000000000000000    5.9730386734008789
K Rb Li Mo F
1 1 1 1 6
direct
   0.6545760035514832    0.1976623833179474    0.5993996858596802 K
   0.1544472724199295    0.6977416872978210    0.0995571613311768 Rb
   0.9044507741928101    0.4474883973598480    0.8492900133132935 Li
   0.4041601419448853    0.9480260014533995    0.3495559692382812 Mo
   0.1569744944572449    0.1948885321617126    0.1018858477473259 F
   0.6518220305442810    0.7000677585601807    0.1020472720265388 F
   0.1572788953781128    0.7001458406448364    0.5967983603477478 F
   0.6518537402153015    0.1950339227914810    0.1021590754389762 F
   0.6517709493637086    0.7004014849662781    0.5971623659133911 F
   0.1564821600914001    0.1953412741422653    0.5972081422805786 F
