Ca2 O1 F2
1.0
   3.6645174026489258    0.0000000000000000   -0.0038369665853685
  -1.8225461072634699    3.1598293568975202    0.0018892535008485
   0.0000000000000000    0.0000000000000000    6.1587629318237305
Ca O F
2 1 2
direct
   0.0200884602963925    0.3916821181774139    0.0433496385812759 Ca
   0.3537025153636933    0.0577157959342003    0.5959593057632446 Ca
   0.6866433024406434    0.7244411110877991    0.8214752674102783 O
   0.3537842631340027    0.0576584078371525    0.1858977675437927 F
   0.0188412480056286    0.3916654884815216    0.4549234509468078 F
