K3 Li2 F5                               
   1.00000000000000     
     5.0304021163535131    0.0420402420554916   -3.3895996309070453
    -0.8604039131944148    5.1323218509325734    1.4534427551152449
     0.0302522722509427   -0.0325233356000403    6.0690273668319481
   K    Li   F 
     3     2     5
Direct
  0.5711131786947609  0.1007031465218061  0.2949138351167985
  0.3355533346860175  0.4127276734483449  0.5283852707177278
  0.8065400840349126  0.7873256326818039  0.0602547607513166
  0.0043696534766492  0.3773766672098754  0.8663555410483287
  0.1391008296035109  0.8229274358597637  0.7254696222578733
  0.3203586110910964  0.6059093006608998  0.0431414353671052
  0.3191933931764000  0.9022885181607356  0.5431729974790709
  0.8235960878994913  0.2978051928731432  0.0466703773969086
  0.8231261461291635  0.5945982586945736  0.5480604618969894
  0.0718395763235819  0.1004451086748966  0.7950928701256456
 
  0.00000000E+00  0.00000000E+00  0.00000000E+00
  0.00000000E+00  0.00000000E+00  0.00000000E+00
  0.00000000E+00  0.00000000E+00  0.00000000E+00
  0.00000000E+00  0.00000000E+00  0.00000000E+00
  0.00000000E+00  0.00000000E+00  0.00000000E+00
  0.00000000E+00  0.00000000E+00  0.00000000E+00
  0.00000000E+00  0.00000000E+00  0.00000000E+00
  0.00000000E+00  0.00000000E+00  0.00000000E+00
  0.00000000E+00  0.00000000E+00  0.00000000E+00
  0.00000000E+00  0.00000000E+00  0.00000000E+00
