Li2 Mn1 F4
1.0
   3.1037523746490483    0.0000000000000000    0.0048379376530647
  -1.5582654444145871    4.8002785594336075   -1.1905330419540405
   0.0000000000000000    0.0000000000000000    5.4065785408020020
Li Mn F
2 1 4
direct
   0.3806130886077881    0.3549980819225311    0.6583186388015747 Li
   0.1454836428165436    0.8882152438163757    0.8852248787879944 Li
   0.6092337965965271    0.8154149651527406    0.3536680638790131 Mn
   0.7526803016662598    0.1006628200411797    0.7220974564552307 F
   0.0056957527995110    0.6098781228065491    0.5161246061325073 F
   0.5287182331085205    0.6550052165985107    0.9625127315521240 F
   0.2423652261495590    0.0785073190927505    0.2691950500011444 F
