K2 Te1 H4 O3 F6                         
   1.00000000000000     
     4.5752359811165615    0.0694462655224755   -2.1862565742768947
    -1.7701370122727100    6.2501806329775196   -1.0546388752710008
     0.1212707781164140    0.0402974157372518    7.9038324536515816
   K    Te   H    O    F 
     2     1     4     3     6
Direct
  0.5982824558746095  0.4398470545904477  0.3686836094174475
  0.9039568795700963  0.7910123240204837  0.0757521827055786
  0.2564184438805522  0.1521727528997537  0.7376855917332453
  0.2121784690841736  0.4993244949877277  0.8949021394324026
  0.2619049892135949  0.7481609670579558  0.5309195497813013
  0.6152378878506732  0.9665314725430180  0.6767565143439929
  0.4802174764407157  0.0755923895108889  0.0807160361027857
  0.2243406177874355  0.0755695509903661  0.9457991073860093
  0.0878266285085338  0.3832233045354253  0.7246742505281130
  0.4493348160185667  0.9117774633153496  0.7058507906663541
  0.6597086131332827  0.3304538370742148  0.8850609292847260
  0.6885639345221700  0.0882818031065288  0.2041527280496464
  0.2961463479970101  0.1814167955680099  0.5074998146234013
  0.3333456645894249  0.6040518465841835  0.0446241865064803
  0.8759253860374774  0.9436119325530135  0.5655003992896935
  0.1489879643656083  0.6365750378871743  0.4028925250932904
 
  0.00000000E+00  0.00000000E+00  0.00000000E+00
  0.00000000E+00  0.00000000E+00  0.00000000E+00
  0.00000000E+00  0.00000000E+00  0.00000000E+00
  0.00000000E+00  0.00000000E+00  0.00000000E+00
  0.00000000E+00  0.00000000E+00  0.00000000E+00
  0.00000000E+00  0.00000000E+00  0.00000000E+00
  0.00000000E+00  0.00000000E+00  0.00000000E+00
  0.00000000E+00  0.00000000E+00  0.00000000E+00
  0.00000000E+00  0.00000000E+00  0.00000000E+00
  0.00000000E+00  0.00000000E+00  0.00000000E+00
  0.00000000E+00  0.00000000E+00  0.00000000E+00
  0.00000000E+00  0.00000000E+00  0.00000000E+00
  0.00000000E+00  0.00000000E+00  0.00000000E+00
  0.00000000E+00  0.00000000E+00  0.00000000E+00
  0.00000000E+00  0.00000000E+00  0.00000000E+00
  0.00000000E+00  0.00000000E+00  0.00000000E+00
