F  Sb Zn
 1.0000000000000000
     7.0160885512187070    0.0000000000000000    0.0000000000000000
    -1.7794639659052687    5.2077239235014927    0.0000000000000000
    -0.5336406952724742   -0.7365766264218835    5.2748644129745559
 F   Sb  Zn 
   8   2   1
Cartesian
 -0.4831055796551794  3.0945613408725490  3.6580495223276679
  5.0193244263341885  0.2529315598546906  1.9622896949771802
 -0.3358975572527474  0.0481338397186114  4.2386701454828071
 -1.3163170007223317  4.3793153708626891  1.1039915315813380
  2.0269425147174762  0.5437897422264920  3.0405656896967712
  3.9217035762587669  2.8022816791530034  2.2832675231263884
  4.1641257925906290  1.4670652689024120  4.8583013739593914
  1.9043799042751455  2.4128682797467707  0.2754487327827466
  3.8209657564376758  3.9129523297756457  0.6141478233160098
  1.5964009634890357 -0.2456791843164024  4.7863695868508040
  5.4273829864567542  1.5698355486447786  3.3127904008012030
