Ca2 F4
1.0
   3.5517003536224365    0.0000000000000000   -0.0069675636477767
  -0.0062965304569537    5.1826448338442681   -0.0107478369027370
   0.0000000000000000    0.0000000000000000    5.1412935256958008
Ca F
2 4
direct
   0.2173454463481903    0.4824411869049072    0.6616350412368774 Ca
   0.7174987196922303    0.9822028279304504    0.1613057553768158 Ca
   0.2170253694057465    0.7888507246971130    0.3536342978477478 F
   0.7154142260551454    0.2891406416893006    0.4680362939834595 F
   0.2168462276458741    0.1748304516077042    0.9679304361343384 F
   0.7172755002975465    0.6752682924270630    0.8543220758438110 F
