K4 Bi1 F7
1.0
   6.4387578964233398    0.0000000000000000   -1.3728601932525626
  -2.6103063656399845    5.3401117364523394   -2.9238667488098136
   0.0000000000000000    0.0000000000000000    6.5408315658569336
K Bi F
4 1 7
direct
   0.6515396237373352    0.0238843690603971    0.3721791505813598 K
   0.4350352287292480    0.2056702077388763    0.9589553475379943 K
   0.8429285287857056    0.7609819173812866    0.6846956610679625 K
   0.2360156327486038    0.3601692318916321    0.5334482789039612 K
   0.0523361861705780    0.5991815328598022    0.1142004430294037 Bi
   0.0251444205641746    0.2270516604185104    0.7959728240966796 F
   0.2721940279006957    0.9409095644950866    0.4966478943824767 F
   0.2597509026527404    0.7729576826095580    0.9453682899475097 F
   0.8618277311325073    0.4048217535018921    0.2958112359046936 F
   0.6896108984947205    0.4159889519214630    0.7770597934722899 F
   0.4053941071033477    0.5719838738441466    0.3061227202415465 F
   0.9223723411560057    0.8949116468429564    0.1554627865552901 F
