Ca1 Sn1 F6
1.0
   4.5943336486816415    0.0000000000000000   -2.6606800556182839
   0.0151454892926943    5.1046270753881506   -0.0021002315916124
   0.0000000000000000    0.0000000000000000    5.3093509674072266
Ca Sn F
1 1 6
direct
   0.0115524474531412    0.9062989950180054    0.6538342237472534 Ca
   0.6781740188598633    0.4058406054973602    0.9878243803977966 Sn
   0.9732973575592041    0.6355009078979492    0.9753926992416382 F
   0.6903879642486572    0.6355975270271301    0.2946433424949646 F
   0.3716147840023041    0.1758726686239243    0.9748123288154602 F
   0.6914776563644409    0.1764300018548966    0.6929485201835632 F
   0.3704350292682648    0.6357355117797853    0.6918350458145142 F
   0.9741455316543579    0.1765668839216232    0.2949993014335632 F
