Li1 Tb1 Pr1 Bi2 F13
1.0
   6.0108895301818848    0.0000000000000000    1.5496879816055300
   0.2872504783495433    6.0798655478646504   -0.0606452114880079
   0.0000000000000000    0.0000000000000000    7.5002255439758301
Li Tb Pr Bi F
1 1 1 2 13
direct
   0.9416395425796509    0.0852395370602608    0.0281720533967018 Li
   0.0406690277159214    0.5305657982826233    0.7267056703567505 Tb
   0.5404013395309448    0.9781038165092467    0.7887848615646362 Pr
   0.7183832526206970    0.6001276969909668    0.3051034510135651 Bi
   0.2640307247638702    0.0511483885347843    0.3354590237140656 Bi
   0.7608080506324768    0.2830111086368561    0.7690225839614868 F
   0.5639610886573792    0.9569583535194397    0.4656484127044678 F
   0.9204494953155518    0.4464239776134491    0.0321021154522895 F
   0.7690740823745728    0.6760208010673523    0.5992285013198853 F
   0.9628486633300781    0.8607373833656311    0.2208860963582993 F
   0.8979517221450806    0.8748952746391295    0.8479158282279968 F
   0.3166507184505463    0.6740188002586364    0.8195701837539673 F
   0.9863342642784119    0.3341928720474243    0.3850520551204681 F
   0.2633564770221710    0.6560596823692322    0.4642294645309448 F
   0.5301906466484070    0.2816823422908783    0.2381085306406021 F
   0.2561420500278473    0.2166311591863632    0.6680059432983398 F
   0.2510198056697845    0.1249144226312637    0.0372129455208778 F
   0.5230535864830017    0.8266889452934264    0.1248343661427498 F
