F  Gd H  Rb
 1.0000000000000000
     4.5397226252319225    0.0000000000000000    0.0000000000000000
     0.9247626822130122    6.2911359651845169    0.0000000000000000
     1.1515818880130746   -0.7485002834919854    6.0303902925112274
 F   Gd  H   Rb 
   7   1   3   1
Cartesian
  4.0805412597806070  0.4994592079845784  4.3792801204331315
  1.2244845568446316 -0.2225990716468496  2.2607603319012473
  4.7811943745481127  1.0169557379748122  0.6038316018301934
  2.1369879623807968  3.0263654340223276  0.5484885575174122
  2.8288253865556920  4.7650429042240461  4.4942640244249352
  5.8583739673020609  3.0716520533173561  4.8887378414349980
  2.5723071901958976  2.1403211465494127  2.6134755726962173
  1.8295862449720166  0.8193945627137226  4.4136899607476794
  2.0962443710227778  3.9388541603701976  4.7170811475464527
  0.7595585276890151  0.4131133795155423  1.4143037623796537
  2.3178559594088717  2.5311336143024485  1.4886506305424578
  4.4441917662064707  4.3005692201270520  1.9309341838989742
