Na2 Nd1 Bi1 F8                          
   1.00000000000000     
     5.4594766068630847    0.0003353386005450    0.0210420861300954
     0.0055010466472833    6.0821174968185820   -3.9492370299186526
     0.0130871934371260    0.0182182367914045    6.3755521128808654
   Na   Nd   Bi   F 
     2     1     1     8
Direct
  0.6885316782366575  0.1400390204898685  0.5919938804913771
  0.1885651443898377  0.6400843427625482  0.0919651120365570
  0.1884575251438594  0.1402072120786116  0.0919115916662635
  0.6884161182108534  0.6399165396288538  0.5919760665938262
  0.8866842933669844  0.4949363917355343  0.7770091797990158
  0.9928554487572120  0.9952818349490526  0.2803143972688999
  0.3864168478066259  0.8015734814483072  0.8951410628926669
  0.4906892690685489  0.7848064144100753  0.4067312204840366
  0.3837857916676091  0.2853609110519717  0.9035588165315718
  0.8835982901988495  0.9788556867580669  0.7918226267686044
  0.9907294653639590  0.4788056462300544  0.2886023625082434
  0.4925635241427254  0.3022911972271204  0.3931673107932575
 
  0.00000000E+00  0.00000000E+00  0.00000000E+00
  0.00000000E+00  0.00000000E+00  0.00000000E+00
  0.00000000E+00  0.00000000E+00  0.00000000E+00
  0.00000000E+00  0.00000000E+00  0.00000000E+00
  0.00000000E+00  0.00000000E+00  0.00000000E+00
  0.00000000E+00  0.00000000E+00  0.00000000E+00
  0.00000000E+00  0.00000000E+00  0.00000000E+00
  0.00000000E+00  0.00000000E+00  0.00000000E+00
  0.00000000E+00  0.00000000E+00  0.00000000E+00
  0.00000000E+00  0.00000000E+00  0.00000000E+00
  0.00000000E+00  0.00000000E+00  0.00000000E+00
  0.00000000E+00  0.00000000E+00  0.00000000E+00
