Cs2 K2 Rb2 F6
1.0
   7.0057206153869620    0.0000000000000000   -1.1718761920928948
  -3.8092295859056828    5.8747968413953604   -1.1716756820678706
   0.0000000000000000    0.0000000000000000    7.1031475067138672
Cs K Rb F
2 2 2 6
direct
   0.8770175576210023    0.3128708004951477    0.1867006123065948 Cs
   0.2101100832223892    0.9794490337371826    0.1862700283527375 Cs
   0.7090513110160829    0.4810200333595276    0.6868494153022766 K
   0.3783531486988068    0.8119527101516724    0.6867946982383728 K
   0.5435325503349304    0.6459320187568665    0.1867286562919617 Rb
   0.0435877442359924    0.1462623476982117    0.6864901185035706 Rb
   0.9571448564529420    0.7268608808517456    0.4548498094081879 F
   0.3155920207500458    0.4179661273956299    0.4540064930915833 F
   0.1299460232257843    0.5652379393577576    0.9181872606277467 F
   0.4627252817153931    0.2326069027185440    0.9183276891708375 F
   0.6249887943267822    0.0594803132116795    0.4555326104164124 F
   0.7721507549285890    0.8741267323493958    0.9190818071365358 F
