Mg2 H2 O2 F2
1.0
   2.9984073638916020    0.0000000000000000    0.8494592308998105
   0.2742148558581859    5.2520712746410947   -1.0670099258422849
   0.0000000000000000    0.0000000000000000    5.0383796691894531
Mg H O F
2 2 2 2
direct
   0.5246647596359253    0.8783298134803771    0.1686468273401260 Mg
   0.0248397924005985    0.3785102665424346    0.1695014834403992 Mg
   0.2283005416393280    0.6368028521537781    0.7513238191604614 H
   0.8211902379989624    0.1201806738972664    0.5854483246803284 H
   0.9298946261405945    0.0870993733406067    0.3778247833251953 O
   0.1207515075802803    0.6701850891113281    0.9573683142662048 O
   0.6209526062011719    0.1789096444845200    0.9544692635536194 F
   0.4297677278518677    0.5771447420120239    0.3818325996398926 F
