Pb2 F4                                  
   1.00000000000000     
     4.1416701878589928   -0.0032926827766295    0.2244705468472702
     2.0699410326340204    3.8622856415808746    0.1146759880378066
     0.3674425994060945   -0.0094185769967053    6.4638003082486968
   Pb   F 
     2     4
Direct
  0.2213914497859945  0.0593572669337263  0.3597879547454043
  0.4884151461431791  0.5243649689797827  0.8597489968745109
  0.9452071383021214  0.8408867693056167  0.7034937323474639
  0.9905430039196500  0.7481293290625608  0.2035033310268780
  0.2334903752152335  0.1486825268181477  0.9721447308583085
  0.5912344130801632  0.4380425087465099  0.4729249099625586
 
  0.00000000E+00  0.00000000E+00  0.00000000E+00
  0.00000000E+00  0.00000000E+00  0.00000000E+00
  0.00000000E+00  0.00000000E+00  0.00000000E+00
  0.00000000E+00  0.00000000E+00  0.00000000E+00
  0.00000000E+00  0.00000000E+00  0.00000000E+00
  0.00000000E+00  0.00000000E+00  0.00000000E+00
