Rb Cd Ho Cd F  Rb Ho F                                                                              
 1.000
    3.6413995392700862    0.0000000000000000    0.0000000000000000
   -0.0092076507918013    6.9183798528188216    0.0000000000000000
   -0.0196129168398664    1.4187826730697577   11.0534485175207031
   Cd   F    Ho   Rb
    2   12    2    2
Direct
    0.9432882070541382    0.2281348407268524    0.2661440968513489     Cd1
    0.4423737823963165    0.9246593713760375    0.5066918134689331     Cd2
    0.9430621266365050    0.5119167566299438    0.3016908466815948      F1
    0.4447365999221802    0.7003778219223021    0.9391476511955260      F2
    0.9433462619781493    0.4556306302547455    0.8308994174003601      F3
    0.9432066082954408    0.0020198822021484    0.6238173246383667      F4
    0.4439596235752106    0.2185837179422379    0.4181531071662902      F5
    0.9416236877441406    0.9336470961570741    0.3563556969165802      F6
    0.4427395462989806    0.7436074614524840    0.7094482779502869      F7
    0.9442672729492188    0.0693149492144585    0.9623951315879822      F8
    0.4431064426898956    0.1561251580715179    0.1498469710350037      F9
    0.4420672059059143    0.6421093940734863    0.4659361541271209     F10
    0.4433902800083161    0.0850908756256104    0.8070570826530455     F11
    0.9441360235214235    0.4055789113044739    0.0593939349055290     F12
    0.4437241554260253    0.3089422583580018    0.9518125653266907     Ho1
    0.9436017274856570    0.8442617654800414    0.8191697001457214     Ho2
    0.4428463578224182    0.7430706620216371    0.2001511901617050     Rb1
    0.9422546625137328    0.4115587770938873    0.5719633698463440     Rb2
