Ca F  Hf Na
 1.0000000000000000
     5.4731798065666579    0.0000000000000000    0.0000000000000000
     0.0011961917034239    5.3699049908239518    0.0000000000000000
    -0.0022215695860632   -0.0011797039296888    5.3824089848466103
 Ca  F   Hf  Na 
   1   8   1   2
Cartesian
  2.2983873753867829  4.4815467902572008  4.6717912870779923
  3.5261951121720938  3.0435097261707766  3.2261356546243616
  1.0750195675801459  3.0428017342893119  0.7362502203199771
  3.5253054039226535  0.5525642527187211  3.2311699083283263
  1.0697583820663845  0.5519270415238231  3.2252797160007205
  1.0704052980599945  3.0418235921791794  3.2348907389718757
  1.0725270308053600  0.5515383586127061  0.7262769954349947
  3.5288825439351683  3.0406468555670001  0.7267527664165763
  3.5284918616542971  0.5494557559234317  0.7311092951046331
  2.2999988097946344  1.7980330424290836  1.9810131598836305
  5.0350165978116497  4.4807923692583227  1.9790059709785286
  5.0379244171988251  1.7990790279431919  4.6724313161462696
