Rb3 Pr1 F6                              
   1.00000000000000     
     4.1872504225049951    0.0108187740483907   -1.1723482553902822
    -1.0480856493457431    6.1622088748935191   -3.5641760099117286
     0.0651185725531415   -0.0735856783984881    8.3304740489536595
   Rb   Pr   F 
     3     1     6
Direct
  0.2401875556435375  0.0575941415739487  0.8444187244388177
  0.7136405348774842  0.5400314410480770  0.8011939850508268
  0.4584264961730858  0.8362916422767699  0.2867332438231739
  0.9894527636131218  0.3570943261202271  0.3392598350497869
  0.8714006355453102  0.4830389660914295  0.1191991325627062
  0.5300123641261559  0.5924797242048502  0.4402590826049110
  0.1501521425587180  0.6238792679825038  0.6741805379317128
  0.0801908378335211  0.1578436116126552  0.5086472528370897
  0.8318526709357361  0.0116090935166574  0.0304272229496048
  0.4489978574408109  0.1875528081248947  0.2631435632534042
 
  0.00000000E+00  0.00000000E+00  0.00000000E+00
  0.00000000E+00  0.00000000E+00  0.00000000E+00
  0.00000000E+00  0.00000000E+00  0.00000000E+00
  0.00000000E+00  0.00000000E+00  0.00000000E+00
  0.00000000E+00  0.00000000E+00  0.00000000E+00
  0.00000000E+00  0.00000000E+00  0.00000000E+00
  0.00000000E+00  0.00000000E+00  0.00000000E+00
  0.00000000E+00  0.00000000E+00  0.00000000E+00
  0.00000000E+00  0.00000000E+00  0.00000000E+00
  0.00000000E+00  0.00000000E+00  0.00000000E+00
