Be F  H  Tl
 1.0000000000000000
     4.4229017147348060    0.0000000000000000    0.0000000000000000
     0.9891442177661051    5.4465014514228436    0.0000000000000000
    -3.0481408583057017   -2.5947559061032344    6.9291179021433607
 Be  F   H   Tl 
   2   7   2   1
Cartesian
  0.1109199709253175  1.9177212316386463  1.4120942924618789
 -1.1014145434609213  0.4371084092913678  3.9055858245923276
  2.1673194066092032 -0.5356323816845113  3.3854031513388114
  0.1229606535672619 -0.4849831356750424  4.4419757425231428
  1.2701839105225883  2.9070594773930432  1.9174532965354949
  0.6032035523022320  0.9622841920999642  0.3956267279207054
 -0.4963124537710588  1.1855335380257814  2.6640436446720615
  2.8211685211660020  1.3799916745514500  4.9428102482164560
  3.3187397280883411  2.8506615024178470  0.8815280916041845
  2.2557127021251131  2.8427445895524275  1.4049658843450898
  1.1672895220122883 -0.4878892803374014  3.9056407546046117
  0.6841208970954260  2.6065804338267626  6.1305726420489952
