Ba1 Sr1 I1 F3
1.0
   4.4038481712341309    0.0000000000000000   -0.0170831140130759
  -2.2278465847509783    3.8160651048355367   -0.0224867239594461
   0.0000000000000000    0.0000000000000000    8.2488937377929688
Ba Sr I F
1 1 1 3
direct
   0.5288362503051758    0.2803881764411927    0.4945589900016785 Ba
   0.8597584366798401    0.9465298056602479    0.1464706361293793 Sr
   0.1953026503324509    0.6141049861907959    0.8244079947471619 I
   0.5278315544128418    0.2782323062419892    0.1649598777294159 F
   0.8614665269851685    0.9459902644157410    0.4499610066413879 F
   0.1948252469301224    0.6123478412628175    0.3061366081237793 F
