Gd1 F3                                  
   1.00000000000000     
     4.1149740083066844   -0.0168997412404560    0.0089516462882523
     2.0835979252866168    3.5517243680858281   -0.0012989914177772
    -0.0011662560219874    0.0005637617966425    4.4368291035086536
   Gd   F 
     1     3
Direct
  0.8753639169963526  0.5277098866402039  0.4607509691989213
  0.5419774408397607  0.1935929842543948  0.4592190788425659
  0.8737690831488215  0.5294208592204396  0.9605901793022713
  0.2092988045060929  0.8605618371685918  0.4604937949684057
 
  0.00000000E+00  0.00000000E+00  0.00000000E+00
  0.00000000E+00  0.00000000E+00  0.00000000E+00
  0.00000000E+00  0.00000000E+00  0.00000000E+00
  0.00000000E+00  0.00000000E+00  0.00000000E+00
