F  Ga K  Na
 1.0000000000000000
     5.9121029306772934    0.0000000000000000    0.0000000000000000
    -0.0292336956917758    5.8883409929512371    0.0000000000000000
    -0.0027308639918987   -0.0009238115218730    4.3130416772076403
 F   Ga  K   Na 
   6   1   2   1
Cartesian
  2.8233534733350005  3.4861019001182472  0.2503681935871482
  0.2268090177798235  2.9304931701938606  0.2487359454317325
  4.2088985897864362  1.5555318214044520  2.4051873570926112
  2.2946934600262261  0.2100357028719987  0.2535771290628275
  1.2493967977200919  4.5148785498773245  2.4076136528111309
  5.5767090141233941  5.5195689574288505  0.2490363402767304
  1.2464062351141130  4.5093096603080358  0.2512577293062122
  1.2579872032330115  1.5602036464473308  2.4034065825172575
  4.1986239213207108  4.5073060354665193  2.4089363156074635
  4.2079466063208208  1.5675856231096237  0.2553278416594161
