F  K  Sn
 1.0000000000000000
     5.1705534188869260    0.0000000000000000    0.0000000000000000
    -0.0284849823360406    6.0480227332027532    0.0000000000000000
    -0.5544751474571261   -1.6682259328945244    7.5704403569460093
 F   K   Sn 
  10   2   2
Cartesian
  2.5284644198016406  0.6639658743953927  6.8450650550505907
  0.1733583299273709 -0.2500530637371011  2.0388045243314790
  2.8002292444570216  1.0749289734876226  2.1942535310133495
 -0.0291564226141335  2.5978392645455277  2.3763388457853418
  1.2230638749902689  3.8368318434196289  4.9555044011871718
  3.8340614444625158 -0.4753761602537946  4.4057527516573334
  0.2113506529752743  2.1603905905439249  7.0517863602138489
  3.5102778920968611  2.3182486355065848  4.6648586456533616
  0.9560704068329445  1.0574535464384596  4.5483208494667560
  2.6783895309181154  3.5193198610572125  7.3582514565747550
 -0.2865237179549486 -0.7619235078722524  7.0441000503373932
  2.2698589597158900  4.0995572146834300  2.2953713279391770
  1.8811127113086252  2.3108378836906454  6.0040508139178392
  4.4571950999747179  1.0007967755191869  3.2645252530352433
