P2 F10
1.0
   5.1879663467407227    0.0000000000000000    0.0249607600271704
  -0.0203535769082678    5.1508138970268789    0.0373960658907881
   0.0000000000000000    0.0000000000000000    7.1636328697204590
P F
2 10
direct
   0.5084794163703918    0.5447498559951782    0.1912162601947784 P
   0.0088186543434858    0.0407476834952831    0.6825459599494934 P
   0.2248895615339279    0.8256248235702514    0.7205498814582825 F
   0.2249591797590256    0.2584944665431976    0.7219865918159485 F
   0.2917447984218597    0.7617988586425781    0.1530151069164276 F
   0.7261204719543457    0.3290170729160309    0.1521254926919937 F
   0.0098217790946364    0.0436227619647980    0.4704949557781219 F
   0.7934619784355164    0.2557656764984131    0.7197318673133850 F
   0.5087988972663879    0.5429109930992126    0.4050610661506653 F
   0.7236368656158447    0.7618447542190551    0.1536058783531189 F
   0.2943788766860962    0.3289663195610046    0.1535106897354126 F
   0.7927561402320862    0.8233267068862914    0.7214030027389526 F
