Li5 Fe2 F9                              
   1.00000000000000     
     6.7363145827035309   -0.0419229967023763   -0.6652472211654071
    -3.4427113055063505    3.7118497653855655   -0.6352380663556507
    -0.0003423040243209    0.0058270809209319    6.4029271506614949
   Li   Fe   F 
     5     2     9
Direct
  0.5733493492459314  0.7517150390778152  0.0515138626797595
  0.8923350628440340  0.7811359597379368  0.4520677560142150
  0.3303734949136499  0.1242816638918429  0.2011857799051435
  0.6800751973209944  0.0977619441336083  0.5446730127316050
  0.7870747776907354  0.4550745429559578  0.9656426236832534
  0.2398088583407239  0.7809223816967833  0.7594982589812325
  0.1214436449715345  0.4370237720163481  0.3023116508606293
  0.0598274491350155  0.2913327848869557  0.5757362690398492
  0.4922454849812956  0.6070691474443619  0.3433501194315017
  0.6034256022509777  0.9555508869296303  0.8154561733507305
  0.4218523539854035  0.2662197714732178  0.9374431822139661
  0.8737467035316420  0.6017531588025965  0.6980661626689921
  0.1874717698961401  0.6506333261285757  0.0450749301304374
  0.2906397929551598  0.9193533202278309  0.4750479638697480
  0.9513577494290426  0.9387115381587312  0.1666422794369040
  0.7631125141524703  0.2950045670237407  0.2619767310764610
 
  0.00000000E+00  0.00000000E+00  0.00000000E+00
  0.00000000E+00  0.00000000E+00  0.00000000E+00
  0.00000000E+00  0.00000000E+00  0.00000000E+00
  0.00000000E+00  0.00000000E+00  0.00000000E+00
  0.00000000E+00  0.00000000E+00  0.00000000E+00
  0.00000000E+00  0.00000000E+00  0.00000000E+00
  0.00000000E+00  0.00000000E+00  0.00000000E+00
  0.00000000E+00  0.00000000E+00  0.00000000E+00
  0.00000000E+00  0.00000000E+00  0.00000000E+00
  0.00000000E+00  0.00000000E+00  0.00000000E+00
  0.00000000E+00  0.00000000E+00  0.00000000E+00
  0.00000000E+00  0.00000000E+00  0.00000000E+00
  0.00000000E+00  0.00000000E+00  0.00000000E+00
  0.00000000E+00  0.00000000E+00  0.00000000E+00
  0.00000000E+00  0.00000000E+00  0.00000000E+00
  0.00000000E+00  0.00000000E+00  0.00000000E+00
