Ta1 F5
1.0
   3.5194642543792725    0.0000000000000000   -1.2729889154434213
  -0.6019308404037531    4.0094179589137147   -1.7729222774505617
   0.0000000000000000    0.0000000000000000    5.4408502578735352
Ta F
1 5
direct
   0.1508352607488632    0.8441030979156494    0.0070480396971107 Ta
   0.1506978422403336    0.3432408571243286    0.0070683169178665 F
   0.6521163582801819    0.0754995271563530    0.0083497129380703 F
   0.9503673911094666    0.6437410116195679    0.6064564585685730 F
   0.3515958189964294    0.0431574322283268    0.4073815643787384 F
   0.6507479548454285    0.6110321283340454    0.0064014615491033 F
