Cs1 Tl1 Ge1 F6
1.0
   5.6031336784362793    0.0000000000000000    3.2617259025573726
   1.8702173473207482    5.2761011841301793    3.2511050701141349
   0.0000000000000000    0.0000000000000000    6.4790911674499512
Cs Tl Ge F
1 1 1 6
direct
   0.7990036606788635    0.8094446063041686    0.2047601938247682 Cs
   0.5496581196784973    0.5592442750930786    0.9546094536781310 Tl
   0.0492290034890175    0.0592373870313168    0.4547432363033294 Ge
   0.8471965193748474    0.2617499530315399    0.6572368741035461 F
   0.8476466536521912    0.8566734790802001    0.6563666462898254 F
   0.2513199150562287    0.8575745820999146    0.6573861837387085 F
   0.2506332993507386    0.8573997616767882    0.2524903118610382 F
   0.8467485904693604    0.2615450024604797    0.2525007426738739 F
   0.2517141103744507    0.2617240846157074    0.2526078820228577 F
