Ca4 F8                                  
   1.00000000000000     
     6.0323249312069924   -0.0020230562596853   -2.0382244461242403
    -2.9014604786791200    5.1589818068985576   -2.2764447899932954
     0.0057904476626482   -0.0001082720764821    6.3428937613653815
   Ca   F 
     4     8
Direct
  0.7859978228185230  0.8596205706285038  0.3678330124042526
  0.2863902814876285  0.6099341189538450  0.6178169130839973
  0.7862273903440110  0.3599352483272102  0.8676843978046987
  0.2860732622386283  0.1097371576542002  0.1177942981504239
  0.9796646233766352  0.1099843930320643  0.8109060733211712
  0.4792561534366448  0.5529312251401786  0.3677578168991388
  0.0925806875962997  0.6665530684742530  0.8668632163296803
  0.5924138427843141  0.6091080908204111  0.9245941359101799
  0.9796268073936304  0.6098238052512263  0.3107925377277373
  0.4802938806030079  0.0533441974108321  0.8685001056841543
  0.0927771761063694  0.1661205077243529  0.3676141247346064
  0.5926299589641184  0.1098227114353702  0.4248482803859678
 
  0.00000000E+00  0.00000000E+00  0.00000000E+00
  0.00000000E+00  0.00000000E+00  0.00000000E+00
  0.00000000E+00  0.00000000E+00  0.00000000E+00
  0.00000000E+00  0.00000000E+00  0.00000000E+00
  0.00000000E+00  0.00000000E+00  0.00000000E+00
  0.00000000E+00  0.00000000E+00  0.00000000E+00
  0.00000000E+00  0.00000000E+00  0.00000000E+00
  0.00000000E+00  0.00000000E+00  0.00000000E+00
  0.00000000E+00  0.00000000E+00  0.00000000E+00
  0.00000000E+00  0.00000000E+00  0.00000000E+00
  0.00000000E+00  0.00000000E+00  0.00000000E+00
  0.00000000E+00  0.00000000E+00  0.00000000E+00
