F  K  Mg Rb
 1.0000000000000000
     5.8001939009830945    0.0000000000000000    0.0000000000000000
     2.9073558894449398    5.0140123173456876    0.0000000000000000
     2.9120241830382279    1.6674877560739547    4.7305143042809208
 F   K   Mg  Rb 
   6   1   2   1
Cartesian
  5.4139666010034553  3.6027490280376759  2.0143933866271890
  8.3145535085219766  1.9292836247370109  4.3790673032154332
  3.9594602129590819  1.0963668556782484  2.0172458412870835
  9.7696597197341841  4.4356299980389018  4.3808185606555172
  8.3122832915487876  3.6012424577710971  2.0162602479234044
  5.4174418415107519  1.9286789986158881  4.3823090045177420
  6.8581962243747521  1.0942503314759779  2.0149461704319358
  3.9639709795850844  2.7667331473863461  3.1963366573990575
  6.8613049167457776  4.4392031437979771  0.8319493537858331
  6.8688483451036575  4.4358512222705873  4.3804889486852288
