Na1 Lu1 F4
1.0
   3.3908021450042725    0.0000000000000000   -0.0036603172775357
  -0.0043647289048733    5.0767278981824084    0.1047379001975064
   0.0000000000000000    0.0000000000000000    5.0569891929626465
Na Lu F
1 1 4
direct
   0.5368253588676453    0.6601725220680237    0.0662107616662979 Na
   0.0374210998415947    0.1602666825056076    0.5663948655128479 Lu
   0.5369200706481934    0.9785361886024476    0.3834111094474792 F
   0.5371292829513550    0.3411157131195068    0.7491959929466248 F
   0.0365073196589947    0.4505870044231415    0.2768026590347290 F
   0.0366395898163319    0.8695095777511597    0.8556187152862549 F
