Y1 Bi1 F6                               
   1.00000000000000     
     4.3842668014363362    0.0646370391102600    0.7760600866901888
    -1.3716871859818707    4.3604708783853816   -0.7842393662372640
     0.0438785870258377   -0.0746878478114108    6.5758549911083195
   Y    Bi   F 
     1     1     6
Direct
  0.6947006772199645  0.9230430777004260  0.1273102917289626
  0.1929017448035306  0.4252833661570983  0.6279232917061385
  0.6104979115061520  0.6406135954876773  0.8192119569623102
  0.7851048527387277  0.2092293763357298  0.4319765882717971
  0.1952020329738516  0.9236088886768578  0.1269173716036141
  0.9073405678167880  0.3070178941041314  0.9486227572777056
  0.4814850650354316  0.5399098721570867  0.3071313297473768
  0.1974524031946317  0.9290047891565362  0.6260805929713364
 
  0.00000000E+00  0.00000000E+00  0.00000000E+00
  0.00000000E+00  0.00000000E+00  0.00000000E+00
  0.00000000E+00  0.00000000E+00  0.00000000E+00
  0.00000000E+00  0.00000000E+00  0.00000000E+00
  0.00000000E+00  0.00000000E+00  0.00000000E+00
  0.00000000E+00  0.00000000E+00  0.00000000E+00
  0.00000000E+00  0.00000000E+00  0.00000000E+00
  0.00000000E+00  0.00000000E+00  0.00000000E+00
