Li2 Be2 F6
1.0
   4.9920473098754883    0.0000000000000000   -0.3181374371051783
  -2.7182508344572649    4.7552507915774287   -0.5909617543220514
   0.0000000000000000    0.0000000000000000    5.4749293327331543
Li Be F
2 2 6
direct
   0.6558524370193481    0.7729227542877197    0.0726236999034882 Li
   0.6123057007789612    0.3787865638732910    0.7183668613433838 Li
   0.9739165306091309    0.4196243286132812    0.2269427180290222 Be
   0.2939003407955170    0.7317885160446167    0.5633029341697693 Be
   0.9296366572380066    0.1337848156690598    0.1603400707244873 F
   0.4775911271572113    0.6484266519546509    0.7367325425148010 F
   0.7908989191055298    0.5020621418952942    0.0545998401939869 F
   0.3291863203048706    0.6576479673385620    0.2777829468250275 F
   0.3360788226127625    0.0169338993728161    0.6319013833999634 F
   0.9383661746978760    0.4923019111156464    0.5140311717987061 F
