Ca F  K  Rb Sm Tb
 1.0000000000000000
     6.8438194122055638    0.0000000000000000    0.0000000000000000
     2.2371005832145179    6.2401081679295043    0.0000000000000000
     2.3882585365148454    1.1876754705213928    8.3795279665009961
 Ca  F   K   Rb  Sm  Tb 
   1  12   1   2   1   1
Cartesian
  5.2950219970906911  4.7031608296711438  1.3639379156192455
  5.8766474974036527  5.0671910995298894  3.4975433216589478
  6.6526595914533333  5.0498857272590358  7.8675877035644124
  3.0311483899550429  4.5604215383157181  1.8847534363508487
  7.2751051841822489  1.4661244657269112  0.0652663322690381
  7.1827277789949528  3.1443829707523054  5.4246029151740425
  3.2583118707983165  0.5340607146312792  0.4648482916673627
  3.4515966425637008  0.9156789667668144  5.6215779735415792
  4.5087868018504738  4.3568756095723344  6.5350731127167156
  4.3594575008682748  2.6166881527244854  1.9529857500031034
  7.4076410711934875  4.2474217145974755  0.7331169090301040
  1.6189702202722223  1.9878947807951950  2.6322591911671624
  8.4461095154635366  5.7770058214129341  5.1748755190948224
  2.9258027041843464  3.2658331150442117  4.5021190161943521
  6.1248732973952427  0.5910744619351491  2.5177200554601544
  7.8404547671243998  1.0507469339083235  6.9922696957545414
  2.2391057852388547  2.6103352533094397  0.5862382538376238
  6.4363144867180733  5.1499218169038539  5.6258748174932709
