Cs3 Li2 Zn2 F9
1.0
   5.8156414031982422    0.0000000000000000    1.8130477666854865
   0.0553499381072585    4.2982080659321431   -0.2182931602001184
   0.0000000000000000    0.0000000000000000   10.1403579711914062
Cs Li Zn F
3 2 2 9
direct
   0.0251034814864397    0.2586733400821686    0.5981308817863464 Cs
   0.6825882792472839    0.2066714167594910    0.2842895686626434 Cs
   0.3538154959678650    0.2320329695940018    0.9416164159774780 Cs
   0.9063336849212646    0.8765113353729248    0.8356400132179260 Li
   0.8008002638816833    0.5887478590011597    0.0478663109242916 Li
   0.1829327046871185    0.7229921221733093    0.2832579314708710 Zn
   0.5243641138076782    0.7421235442161560    0.5999375581741333 Zn
   0.5248823761940002    0.2432393878698349    0.6001219749450684 F
   0.4980593323707581    0.7119318246841431    0.1294606626033783 F
   0.8541556596755981    0.2334105372428894    0.9409756660461426 F
   0.8541099429130554    0.7329645156860353    0.4409008920192719 F
   0.6868195533752441    0.7540758252143860    0.7528512477874756 F
   0.1831108927726746    0.2218290418386460    0.2826167941093445 F
   0.0215056203305721    0.7112553715705872    0.1296110302209854 F
   0.3531670570373535    0.7321093678474426    0.4414660930633545 F
   0.2097481936216354    0.7524390220642090    0.7534143328666687 F
