Cs1 Na1 Ni2 F6                          
   1.00000000000000     
     5.8090279991008806   -0.0044630030097909    0.0042200699744047
     0.0040434988386838    4.0020818889125973   -0.0003437432208330
     0.0018860948038842    0.0025360321632518    5.8102191997678503
   Cs   Na   Ni   F 
     1     1     2     6
Direct
  0.5415251248033203  0.9357445231877178  0.2503066754906127
  0.0416628803804125  0.9353687293301651  0.7508082778694148
  0.0416880056580561  0.4356184531622720  0.2502477390137246
  0.5417874982960409  0.4353215091862265  0.7500919349822460
  0.0415771525238753  0.9358470207321155  0.2501249604453579
  0.5419281612883801  0.9356501462035710  0.7501377235487166
  0.8096814538168993  0.4356695566485201  0.9817325430256753
  0.2736648495988810  0.4356720619259060  0.5187539580246269
  0.2741760142829139  0.4358470386443423  0.9825741509070099
  0.8092637306183014  0.4355810143181685  0.5177224366397815
 
  0.00000000E+00  0.00000000E+00  0.00000000E+00
  0.00000000E+00  0.00000000E+00  0.00000000E+00
  0.00000000E+00  0.00000000E+00  0.00000000E+00
  0.00000000E+00  0.00000000E+00  0.00000000E+00
  0.00000000E+00  0.00000000E+00  0.00000000E+00
  0.00000000E+00  0.00000000E+00  0.00000000E+00
  0.00000000E+00  0.00000000E+00  0.00000000E+00
  0.00000000E+00  0.00000000E+00  0.00000000E+00
  0.00000000E+00  0.00000000E+00  0.00000000E+00
  0.00000000E+00  0.00000000E+00  0.00000000E+00
