Na2 Bi2 F8                              
   1.00000000000000     
     5.6439182087162179   -0.0079121814711063    0.0086417459740946
     0.0156263511349133    5.6137278684702077    0.0105129253811000
    -0.0065889997418882   -0.0150179964543483    5.6086040187076280
   Na   Bi   F 
     2     2     8
Direct
  0.9114451879715956  0.9355298344741682  0.0118268261392972
  0.9111228855047301  0.4351177701658894  0.5117465527333646
  0.4110566452875570  0.9351849950351165  0.5108038402951427
  0.4112114305910370  0.4352705393607155  0.0107450961801591
  0.1727301476738669  0.6851978427438271  0.7622626577053231
  0.1731465626015436  0.1852017504061777  0.7623709809807427
  0.6495083082289699  0.6856837181110218  0.2613997242138630
  0.6496184561881650  0.1855291967773411  0.2617085645411588
  0.1725916433705328  0.1852972232801274  0.2620202178594300
  0.1728795551629899  0.6853166950048472  0.2626253194519689
  0.6496344680910237  0.6855898296472061  0.7618368011994241
  0.6498142814763114  0.1856298836104676  0.7613175267976791
 
  0.00000000E+00  0.00000000E+00  0.00000000E+00
  0.00000000E+00  0.00000000E+00  0.00000000E+00
  0.00000000E+00  0.00000000E+00  0.00000000E+00
  0.00000000E+00  0.00000000E+00  0.00000000E+00
  0.00000000E+00  0.00000000E+00  0.00000000E+00
  0.00000000E+00  0.00000000E+00  0.00000000E+00
  0.00000000E+00  0.00000000E+00  0.00000000E+00
  0.00000000E+00  0.00000000E+00  0.00000000E+00
  0.00000000E+00  0.00000000E+00  0.00000000E+00
  0.00000000E+00  0.00000000E+00  0.00000000E+00
  0.00000000E+00  0.00000000E+00  0.00000000E+00
  0.00000000E+00  0.00000000E+00  0.00000000E+00
