Ba1 Ce1 Pr1 F9
1.0
   3.9716455936431880    0.0000000000000000   -1.1348744630813599
  -0.7281916832060932    5.3557788633406336   -2.5275833606719975
   0.0000000000000000    0.0000000000000000    7.1663308143615723
Ba Ce Pr F
1 1 1 9
direct
   0.9053656458854674    0.7892876267433168    0.7864711880683900 Ba
   0.5713511705398558    0.4573219716548920    0.1234864294528961 Ce
   0.2393558174371719    0.1219261139631272    0.4529013633728028 Pr
   0.0773386359214783    0.2191624790430069    0.1304255723953247 F
   0.5693477988243102    0.9592488408088685    0.1241410449147225 F
   0.9042419791221618    0.2867051362991333    0.7823067307472230 F
   0.7357578277587890    0.3608048260211945    0.4450450241565705 F
   0.7352347970008849    0.8753345608711244    0.4435542821884156 F
   0.0769487395882606    0.7031372189521790    0.1304031610488892 F
   0.4042817652225494    0.0561148710548878    0.7862402200698854 F
   0.4068365991115570    0.5224589109420776    0.7902783155441285 F
   0.2463027387857437    0.6228333115577698    0.4575347006320954 F
