Ga1 Pb2 F7
1.0
   5.7439484596252441    0.0000000000000000   -0.2074512094259256
   0.6838631428194334    5.2894506313961580   -0.8998916745185848
   0.0000000000000000    0.0000000000000000    5.8710083961486816
Ga Pb F
1 2 7
direct
   0.8512887358665466    0.1022704169154167    0.8565070033073425 Ga
   0.8691694736480713    0.5888291001319885    0.3627788722515106 Pb
   0.3489573299884796    0.5981011390686035    0.8449864983558655 Pb
   0.9691759943962097    0.8675602674484252    0.0677262693643570 F
   0.2179071456193924    0.4059106707572936    0.5003283023834227 F
   0.0738564580678940    0.9067056775093079    0.6384941935539246 F
   0.7309057116508484    0.3364118039608002    0.6461968421936035 F
   0.0773119702935219    0.3263393938541412    0.9900875091552734 F
   0.6312693953514099    0.2933752536773682    0.0746328830718994 F
   0.6288855075836182    0.8751018643379210    0.7166161537170410 F
