Li3 Mn1 F5                              
   1.00000000000000     
     3.1498486721841688    0.0038862152409374   -0.0051053671090104
    -0.0155915782440103    4.6931503876336151   -0.6846170475625561
     0.0108058391630177    0.0811314301005513    6.7927132420820886
   Li   Mn   F 
     3     1     5
Direct
  0.7928542525124120  0.7352757348606475  0.1782818494768810
  0.7935615169163482  0.5351438269505373  0.6804307501013638
  0.2919514472074456  0.3052056303702290  0.3806567341539714
  0.2914434161448684  0.1386627165984908  0.9163176765323466
  0.2937231567590433  0.9758696800211023  0.1808031007755555
  0.7918101214955191  0.3946961217401180 -0.0072052796542595
  0.2929557573534577  0.3092204057277312  0.6638849346884267
  0.7910468895119369  0.8941699100005287  0.8278407115652655
  0.7935571074031527  0.5259102410417116  0.3944335605168694
 
  0.00000000E+00  0.00000000E+00  0.00000000E+00
  0.00000000E+00  0.00000000E+00  0.00000000E+00
  0.00000000E+00  0.00000000E+00  0.00000000E+00
  0.00000000E+00  0.00000000E+00  0.00000000E+00
  0.00000000E+00  0.00000000E+00  0.00000000E+00
  0.00000000E+00  0.00000000E+00  0.00000000E+00
  0.00000000E+00  0.00000000E+00  0.00000000E+00
  0.00000000E+00  0.00000000E+00  0.00000000E+00
  0.00000000E+00  0.00000000E+00  0.00000000E+00
