Cs1 Rb2 Tb1 F6
1.0
   5.9810948371887207    0.0000000000000000    3.4394409656524658
   1.9946976179862752    5.6388220344073767    3.4368047714233407
   0.0000000000000000    0.0000000000000000    6.9050235748291016
Cs Rb Tb F
1 2 1 6
direct
   0.3381974399089813    0.2399253845214844    0.1817966252565384 Cs
   0.0884703099727631    0.9901968836784363    0.9322313070297240 Rb
   0.5882526040077208    0.4899606406688690    0.4315083026885987 Rb
   0.8384515643119811    0.7400313019752501    0.6818057894706727 Tb
   0.6189245581626892    0.5206977128982544    0.9013522267341613 F
   0.0578483007848263    0.5204899311065674    0.4624909162521362 F
   0.6190797090530396    0.9600315690040588    0.9015997648239135 F
   0.0583454631268978    0.5206609368324280    0.9013702869415284 F
   0.6189088821411133    0.9592652916908263    0.4626673758029937 F
   0.0580649934709072    0.9594987630844116    0.4627351164817810 F
