La3 Bi1 F12                             
   1.00000000000000     
     6.0512548381458497    0.0181557257479973   -0.9440998439699722
    -2.0239709963967210    5.3480225731893967   -2.3441718468641866
     0.0710685865685811   -0.0092396395635544    8.7994993870270246
   La   Bi   F 
     3     1    12
Direct
  0.0574492590274761  0.6607553639384688  0.7151489856890049
  0.0039807891827891  0.1402132447483152  0.1805117490530938
  0.5575759287095122  0.3865387962205671  0.9878211228660896
  0.4992062504993091  0.8646699722465987  0.4470177365310241
  0.7497351517071337  0.3720582835670445  0.2344324611162903
  0.1960060152303797  0.5070399613302923  0.4684008845023965
  0.8122446225792456  0.1542036761833501  0.9332439308954287
  0.7665528269693210  0.2547325501298728  0.5791298123826258
  0.3632977607596891  0.0089218900717053  0.6928660215727370
  0.3163232180193407  0.5207844008239997  0.8375208472852207
  0.7789289287670792  0.7694073875931955  0.5832800193947307
  0.2463585470635404  0.0032165251383556  0.3302932410860372
  0.8549752832786337  0.6802409607976041  0.9411661800111599
  0.3062516741947964  0.4917621417127238  0.1827429425067879
  0.2511653452976635  0.0330017733797639  0.9803088961542336
  0.7024659009661028  0.8502526890770887  0.2326845175268239
 
  0.00000000E+00  0.00000000E+00  0.00000000E+00
  0.00000000E+00  0.00000000E+00  0.00000000E+00
  0.00000000E+00  0.00000000E+00  0.00000000E+00
  0.00000000E+00  0.00000000E+00  0.00000000E+00
  0.00000000E+00  0.00000000E+00  0.00000000E+00
  0.00000000E+00  0.00000000E+00  0.00000000E+00
  0.00000000E+00  0.00000000E+00  0.00000000E+00
  0.00000000E+00  0.00000000E+00  0.00000000E+00
  0.00000000E+00  0.00000000E+00  0.00000000E+00
  0.00000000E+00  0.00000000E+00  0.00000000E+00
  0.00000000E+00  0.00000000E+00  0.00000000E+00
  0.00000000E+00  0.00000000E+00  0.00000000E+00
  0.00000000E+00  0.00000000E+00  0.00000000E+00
  0.00000000E+00  0.00000000E+00  0.00000000E+00
  0.00000000E+00  0.00000000E+00  0.00000000E+00
  0.00000000E+00  0.00000000E+00  0.00000000E+00
