Li2 As1 F7
1.0
   4.8861851692199707    0.0000000000000000    0.7158171534538276
   1.3689367329188693    4.9301891066051162   -0.0576822906732554
   0.0000000000000000    0.0000000000000000    5.4551882743835449
Li As F
2 1 7
direct
   0.7816653847694397    0.6740571260452271    0.0337264761328697 Li
   0.4311397671699524    0.5091272592544556    0.6362710595130920 Li
   0.1053646206855774    0.0914330035448074    0.8345377445220947 As
   0.6054490804672241    0.5920090079307556    0.3344087898731232 F
   0.1801370680332184    0.3657356202602386    0.9920853376388550 F
   0.7720878124237061    0.3261183500289917    0.7913833856582642 F
   0.0328377075493336    0.8179814219474792    0.6755337715148927 F
   0.4379595816135406    0.8559484481811523    0.8777441978454590 F
   0.9298507571220398    0.9904149174690248    0.1137485802173615 F
   0.2803095281124115    0.1923054903745651    0.5544737577438354 F
