Li5 Mn2 F9                              
   1.00000000000000     
     5.0854166505844347    0.0386455334879385    1.1063494313623921
     1.1656848159626998    5.1393272628101387    0.4755864933677938
    -0.0970962702146495    0.0687521250193658    6.1280854315504270
   Li   Mn   F 
     5     2     9
Direct
  0.7874704036849998  0.9892472273319312  0.2351822333639443
  0.3144383172748078  0.8840974326024813  0.4367804257595805
  0.6940958813219723  0.7907059370383022  0.7301244397926389
  0.2207209353150691  0.6857711418857435  0.9314662657772587
  0.5045727638579433  0.3344493860966329  0.5845087037920292
  0.9641277469393491  0.2468975391260327  0.7906301292145583
  0.0442119575126608  0.4294477920289541  0.3764636238922786
  0.4198689316363972  0.2003588004476834  0.3327814380414623
  0.1262843374672825  0.5574847476270084  0.6542086628089927
  0.8347323299068399  0.9401387957319063  0.9329777146103320
  0.5886258902946824  0.4747529274082144  0.8342473044693649
  0.3311572807470444 -0.0043063507432951  0.7439718842090752
  0.8834064574081310  0.1185777867937021  0.5129959255605878
  0.6784641801056677  0.6796368150555254  0.4218368811708226
  0.0016517541735039  0.3390436524250793  0.0842124359577606
  0.1709310672590564  0.7374343397719423  0.2338292083313084
 
  0.00000000E+00  0.00000000E+00  0.00000000E+00
  0.00000000E+00  0.00000000E+00  0.00000000E+00
  0.00000000E+00  0.00000000E+00  0.00000000E+00
  0.00000000E+00  0.00000000E+00  0.00000000E+00
  0.00000000E+00  0.00000000E+00  0.00000000E+00
  0.00000000E+00  0.00000000E+00  0.00000000E+00
  0.00000000E+00  0.00000000E+00  0.00000000E+00
  0.00000000E+00  0.00000000E+00  0.00000000E+00
  0.00000000E+00  0.00000000E+00  0.00000000E+00
  0.00000000E+00  0.00000000E+00  0.00000000E+00
  0.00000000E+00  0.00000000E+00  0.00000000E+00
  0.00000000E+00  0.00000000E+00  0.00000000E+00
  0.00000000E+00  0.00000000E+00  0.00000000E+00
  0.00000000E+00  0.00000000E+00  0.00000000E+00
  0.00000000E+00  0.00000000E+00  0.00000000E+00
  0.00000000E+00  0.00000000E+00  0.00000000E+00
