Li1 S2 O6 F1
1.0
   4.9369544982910156    0.0000000000000000    0.0059739635325971
   0.5211048821756796    5.2282253766244775    1.1338014602661124
   0.0000000000000000    0.0000000000000000    5.6509003639221191
Li S O F
1 2 6 1
direct
   0.3099584877490997    0.2459475994110107    0.0692179352045059 Li
   0.7598713040351868    0.7029032111167908    0.9838574528694154 S
   0.9929307103157045    0.0791933313012123    0.5938462018966675 S
   0.0946701988577843    0.1777409315109253    0.7846717238426210 O
   0.0132284760475159    0.5818029642105103    0.1090216115117073 O
   0.6301883459091187    0.9288260936737061    0.0661845356225968 O
   0.8676988482475281    0.8119100332260133    0.6892355680465698 O
   0.5709733963012695    0.5272744297981262    0.9311890006065370 O
   0.1542855650186539    0.0496555715799332    0.3937088847160340 O
   0.7183796167373657    0.2402364313602448    0.5073578357696533 F
