Na3 Li1 Zn4 F12                         
   1.00000000000000     
     5.2626012830199969    0.0058331083424331   -0.0003184878410613
    -0.1771406413154585    5.4657497850413490   -0.0243300555102432
    -0.0058111470958088   -0.0040350995269661    8.9067130404025807
   Na   Li   Zn   F 
     3     1     4    12
Direct
  0.7369561078867848  0.1240959036216985  0.9972203707954067
  0.7321120401863849  0.1024436845974373  0.4341795982966842
  0.2349854983495737  0.1171994514577018  0.2933463494234655
  0.3002479629430297  0.4994623368823611  0.9959350568360790
  0.7356138749621276  0.6235966460900946  0.1935016051547466
  0.2288991320046228  0.6156694911346575  0.5028768406132642
  0.7515255454811967  0.6368703538742347  0.8068748186162434
  0.2450483490336245  0.1143596861693724  0.7002416785097790
  0.0624787461578228  0.9340682965929707  0.5247772114677716
  0.9494889379356322  0.4903451145280762  0.0019417487729132
  0.4698550714534056  0.3233129674962230  0.8339220564431672
  0.9905824653746766  0.4462254835233195  0.6750853543244755
  0.4077074610747359  0.3016999113908953  0.5179038664890979
  0.4877414763783077  0.3457108352328803  0.1559835523700023
  0.4906964768306228  0.8072807264167251  0.6690544103377809
  0.9902708835189552  0.9426931726198086  0.8300104554597928
  0.8952276349314415  0.9496767660674061  0.2023078441176249
  0.4660638627702597  0.7739737687061281  0.3446848038572588
  0.9680666040602139  0.4566645064505918  0.3472873029036058
  0.5361543640436457  0.7582867798826703  0.9863640883590892
 
  0.00000000E+00  0.00000000E+00  0.00000000E+00
  0.00000000E+00  0.00000000E+00  0.00000000E+00
  0.00000000E+00  0.00000000E+00  0.00000000E+00
  0.00000000E+00  0.00000000E+00  0.00000000E+00
  0.00000000E+00  0.00000000E+00  0.00000000E+00
  0.00000000E+00  0.00000000E+00  0.00000000E+00
  0.00000000E+00  0.00000000E+00  0.00000000E+00
  0.00000000E+00  0.00000000E+00  0.00000000E+00
  0.00000000E+00  0.00000000E+00  0.00000000E+00
  0.00000000E+00  0.00000000E+00  0.00000000E+00
  0.00000000E+00  0.00000000E+00  0.00000000E+00
  0.00000000E+00  0.00000000E+00  0.00000000E+00
  0.00000000E+00  0.00000000E+00  0.00000000E+00
  0.00000000E+00  0.00000000E+00  0.00000000E+00
  0.00000000E+00  0.00000000E+00  0.00000000E+00
  0.00000000E+00  0.00000000E+00  0.00000000E+00
  0.00000000E+00  0.00000000E+00  0.00000000E+00
  0.00000000E+00  0.00000000E+00  0.00000000E+00
  0.00000000E+00  0.00000000E+00  0.00000000E+00
  0.00000000E+00  0.00000000E+00  0.00000000E+00
