Li1 In2 F7
1.0
   5.1488513946533203    0.0000000000000000   -1.2072162628173821
   0.8925787408850986    5.3149258750226087   -1.8268848657608026
   0.0000000000000000    0.0000000000000000    5.6907720565795898
Li In F
1 2 7
direct
   0.5836333632469177    0.8712355494499205    0.3564561307430267 Li
   0.8624298572540283    0.2177717387676239    0.0115773119032383 In
   0.3058226406574249    0.5249986648559570    0.7025933861732483 In
   0.0846862643957138    0.3705881834030151    0.3564305305480957 F
   0.5846476554870605    0.1755928844213486    0.6607489585876465 F
   0.0834346860647202    0.8707115650177001    0.8555982112884521 F
   0.0842691957950592    0.3720716834068298    0.8571187257766724 F
   0.5079547166824341    0.6830683946609497    0.5446918606758118 F
   0.5832144021987915    0.5684061646461487    0.0531054921448231 F
   0.6591013669967651    0.0607656538486481    0.1690078526735306 F
