Li2 Mn1 F4
1.0
   3.1606955528259277    0.0000000000000000   -0.9533596038818358
  -0.3989957733252862    4.9410464242424714   -1.3455020189285281
   0.0000000000000000    0.0000000000000000    5.7061800956726074
Li Mn F
2 1 4
direct
   0.3512665927410126    0.2872948944568634    0.7973771691322327 Li
   0.6811248064041138    0.4253531396389008    0.4577710628509521 Li
   0.0160295311361551    0.8561170101165771    0.1269392520189285 Mn
   0.4354577660560608    0.0183421000838280    0.9638922214508058 F
   0.8655235767364502    0.4870870113372803    0.8251826167106628 F
   0.5976541638374329    0.6955999135971069    0.2902984619140625 F
   0.1665060669183731    0.2253278344869614    0.4286490678787231 F
