Li2 Fe1 F5
1.0
   5.1876492500305176    0.0000000000000000    1.3204262256622310
   2.0083055119470443    4.0622557385572557    2.5938816070556650
   0.0000000000000000    0.0000000000000000    5.3693690299987793
Li Fe F
2 1 5
direct
   0.9236375093460083    0.3985478579998016    0.1049808338284492 Li
   0.9275426864624023    0.8979985713958740    0.1041332930326462 Li
   0.4258115887641906    0.5766628980636598    0.6051654219627380 Fe
   0.7122689485549927    0.6505641937255859    0.3208839893341064 F
   0.1381149142980575    0.9356852173805238    0.3188511431217194 F
   0.1387584507465362    0.6502861976623535    0.8904524445533752 F
   0.7117714285850525    0.3643205165863037    0.8912031054496765 F
   0.4263256192207336    0.2223489582538605    0.6053705811500549 F
