Mg2 Mn2 F8                              
   1.00000000000000     
     4.5895662130571324   -0.0012911346330086    0.0012522429874821
     0.0031572241987385    5.6379880622860368   -0.0004035034612955
    -0.0006290022731053   -0.0020543555773529    5.1110441800693716
   Mg   Mn   F 
     2     2     8
Direct
  0.8889098782559725  0.7108847623458343  0.8050368007916210
  0.3891216743248682  0.9125627684048253  0.3050891699998134
  0.3892230464698898  0.2073087434716531  0.8047606117511836
  0.8891041156595105  0.4162285893714358  0.3046930946140252
  0.6236157979830423  0.1812108467927749  0.4746622786021646
  0.6551448368894758  0.6809644539909870  0.4758119106456668
  0.1223616255014024  0.6816672426898200  0.1344330197032038
  0.1554921793312848  0.1818917050127493  0.1350907515510035
  0.6228298389571303  0.9420366204271207  0.9759094302944843
  0.1552322957937050  0.9417479090795532  0.6344689488070742
  0.6551951237325671  0.4420156595865865  0.9747008727718663
  0.1222942994252943  0.4418728920248645  0.6353088044185464
 
  0.00000000E+00  0.00000000E+00  0.00000000E+00
  0.00000000E+00  0.00000000E+00  0.00000000E+00
  0.00000000E+00  0.00000000E+00  0.00000000E+00
  0.00000000E+00  0.00000000E+00  0.00000000E+00
  0.00000000E+00  0.00000000E+00  0.00000000E+00
  0.00000000E+00  0.00000000E+00  0.00000000E+00
  0.00000000E+00  0.00000000E+00  0.00000000E+00
  0.00000000E+00  0.00000000E+00  0.00000000E+00
  0.00000000E+00  0.00000000E+00  0.00000000E+00
  0.00000000E+00  0.00000000E+00  0.00000000E+00
  0.00000000E+00  0.00000000E+00  0.00000000E+00
  0.00000000E+00  0.00000000E+00  0.00000000E+00
