K2 Na1 Yb1 F6                           
   1.00000000000000     
     5.4039402181007459   -0.0005033957183344    3.1319423373037556
     1.8060549439037543    5.1010352502158263    3.1379669429924903
    -0.0019864613221525    0.0031764431085633    6.2463669075334023
   K    Na   Yb   F 
     2     1     1     6
Direct
  0.6493102393555323  0.6666030468360163  0.8629536004948836
  0.1490698819872828  0.1666540035857310  0.3626123670574738
  0.8991674084129525  0.9164089148720768  0.1129083251856624
  0.3988268888663275  0.4163992976444144  0.6129215151839689
  0.6456056765518029  0.1694175729387949  0.3659044159801895
  0.6453937799639083  0.6633385666854272  0.3653173090663924
  0.1526539320244498  0.1695795068200262  0.8598345404584279
  0.1522085458571102  0.6631283947313208  0.3662126754547135
  0.6456411469038505  0.1693146410951653  0.8596335293167379
  0.1519442321210032  0.6627671837173041  0.8602281561038804
 
  0.00000000E+00  0.00000000E+00  0.00000000E+00
  0.00000000E+00  0.00000000E+00  0.00000000E+00
  0.00000000E+00  0.00000000E+00  0.00000000E+00
  0.00000000E+00  0.00000000E+00  0.00000000E+00
  0.00000000E+00  0.00000000E+00  0.00000000E+00
  0.00000000E+00  0.00000000E+00  0.00000000E+00
  0.00000000E+00  0.00000000E+00  0.00000000E+00
  0.00000000E+00  0.00000000E+00  0.00000000E+00
  0.00000000E+00  0.00000000E+00  0.00000000E+00
  0.00000000E+00  0.00000000E+00  0.00000000E+00
