Li2 Fe1 F4                              
   1.00000000000000     
     2.8358643583864565    0.0052369121727440    0.8614391174095601
    -0.3427854745372264    4.9030175281230708    1.1031942282516998
     0.0035726617795745   -0.0706794674076769    5.0965829140365644
   Li   Fe   F 
     2     1     4
Direct
  0.6056263562804811  0.3016349861772402  0.1025025070023347
  0.3639983698671452  0.5307209439352428  0.5818202590232029
  0.1189211310353215  0.8230582277319274  0.0717626944933589
  0.7298945467495543  0.6958333536064933  0.8504652896395813
  0.9919084233697575  0.4588453438993563  0.3254502160164657
  0.2197660321043818  0.2095965510539600  0.8713364907089141
  0.5045883952930654  0.9157392725851903  0.2993522861581344
 
  0.00000000E+00  0.00000000E+00  0.00000000E+00
  0.00000000E+00  0.00000000E+00  0.00000000E+00
  0.00000000E+00  0.00000000E+00  0.00000000E+00
  0.00000000E+00  0.00000000E+00  0.00000000E+00
  0.00000000E+00  0.00000000E+00  0.00000000E+00
  0.00000000E+00  0.00000000E+00  0.00000000E+00
  0.00000000E+00  0.00000000E+00  0.00000000E+00
