Na3 Hf2 F11
1.0
   4.9792532920837402    0.0000000000000000    2.0290019512176518
   2.8901379130450513    5.8864709672926123    0.9109704494476321
   0.0000000000000000    0.0000000000000000    6.5490956306457520
Na Hf F
3 2 11
direct
   0.6336436867713927    0.6607114076614380    0.2309455126523972 Na
   0.2902339994907379    0.7967988848686219    0.8250696063041687 Na
   0.9442788958549500    0.9316614270210266    0.4198720455169678 Na
   0.1455212831497192    0.3558913469314576    0.6052309274673462 Hf
   0.4340601265430450    0.2368640601634979    0.0447140187025070 Hf
   0.2442331314086914    0.0247143190354109    0.5411241650581359 F
   0.7893780469894410    0.9335548877716064    0.0236320067197084 F
   0.5070423483848572    0.1427095979452133    0.7191008925437927 F
   0.5484352111816406    0.2273931950330734    0.3190124332904816 F
   0.0319470949470997    0.3656100034713746    0.3319910466670990 F
   0.7894008159637450    0.2975181043148041    0.8254306912422180 F
   0.7908668518066406    0.6598125100135803    0.6279670596122742 F
   0.0751953721046448    0.4500926733016968    0.9309628605842590 F
   0.2618262171745300    0.0113809574395418    0.1005171164870262 F
   0.3184897303581238    0.5815700292587280    0.5499725937843323 F
   0.3348275423049926    0.5677608251571655    0.1102590709924698 F
