Li1 Zn1 Fe1 F6                          
   1.00000000000000     
     4.1885838111485603    0.5849995287027884    1.5566786278811837
     0.2887505436082621    4.6900557711068380    2.3356901809019455
     0.9522575687914728    0.5666518527845814    5.8077318104259508
   Li   Zn   Fe   F 
     1     1     1     6
Direct
  0.7122378508751686  0.0153482518525591  0.7630735816308669
  0.1096258908497402  0.6350066300714581  0.4076295665545176
  0.9061459370579475  0.3173587442994035  0.0827518354266066
  0.1036282147953330  0.6727738558024086  0.7450704321196818
  0.4904093744546225  0.5480604126029601  0.0811068721967621
  0.3141303192655013  0.0730604039219803  0.0896935076910371
  0.7064388126091964  0.9630481471745898  0.4132367483786124
 -0.0261127182791936  0.2201942943774027  0.7961050367140529
  0.8276202153281286  0.4264396605215203  0.3655149091002441
 
  0.00000000E+00  0.00000000E+00  0.00000000E+00
  0.00000000E+00  0.00000000E+00  0.00000000E+00
  0.00000000E+00  0.00000000E+00  0.00000000E+00
  0.00000000E+00  0.00000000E+00  0.00000000E+00
  0.00000000E+00  0.00000000E+00  0.00000000E+00
  0.00000000E+00  0.00000000E+00  0.00000000E+00
  0.00000000E+00  0.00000000E+00  0.00000000E+00
  0.00000000E+00  0.00000000E+00  0.00000000E+00
  0.00000000E+00  0.00000000E+00  0.00000000E+00
