K3 Te3 O1 F13
1.0
   5.9798960685729980    0.0000000000000000   -0.0073462785221630
   2.9307074566418119    9.2480139466362186   -0.2890886366367326
   0.0000000000000000    0.0000000000000000    6.4156055450439453
K Te O F
3 3 1 13
direct
   0.4889765381813048    0.5596972703933716    0.1841438710689545 K
   0.6486843228340149    0.2381031662225723    0.6922864913940430 K
   0.3321998417377471    0.8819521069526673    0.6743883490562439 K
   0.8074932694435120    0.9219943881034852    0.2964126467704773 Te
   0.0030269143171609    0.5554865598678589    0.6768631339073181 Te
   0.1690916419029236    0.1991964578628540    0.0724397227168083 Te
   0.2721984386444091    0.4604589343070984    0.5202548503875732 O
   0.0186273269355297    0.0482776612043381    0.9708276987075806 F
   0.8193148374557495    0.9005449414253235    0.5950652360916138 F
   0.5052897930145264    0.0697627440094948    0.3954788148403168 F
   0.9587798714637756    0.0716305449604988    0.3948390483856201 F
   0.8539764285087585    0.3456553220748901    0.0299348719418049 F
   0.1578670442104340    0.2198764532804489    0.7711510062217712 F
   0.1251898556947708    0.7748452425003053    0.3363808691501617 F
   0.8084296584129333    0.4549914300441742    0.5154558420181274 F
   0.4708419442176819    0.0498008802533150    0.9703015685081482 F
   0.3319949209690093    0.3507104516029358    0.0269962511956692 F
   0.7023766636848450    0.6595868468284608    0.8467651605606079 F
   0.6455811858177184    0.7711992859840394    0.3387610018253326 F
   0.1663705706596374    0.6670312881469728    0.8540367484092712 F
