Rb3 Pr1 F6                              
   1.00000000000000     
     3.9620658498905965    0.0057885653643030   -0.0041680908566510
    -0.0190677837321377    6.7326425382365942   -0.0031505593757494
     0.0044346296879843    0.0158354073403937    8.2072697875245861
   Rb   Pr   F 
     3     1     6
Direct
  0.4961651539845959  0.2117311488342476  0.1687526124291433
  0.9956668612922882  0.7089730000332224  0.9017997681766180
  0.9960547814969262  0.2113251288499045  0.6498863037581272
  0.4953167865428379  0.7120207896714054  0.4253743469972040
  0.4970953212491720  0.7133635810011157  0.1414428822267595
  0.9962363111272725  0.9180831496018997  0.3829966583838768
  0.9944350353262720  0.5063273073045261  0.3822253681332577
  0.4966905711847703  0.5031209537937664  0.6465709624406508
  0.9953301602448598  0.2167540102687947  0.9688483862567666
  0.4967643190265299  0.9190559027413755  0.6475252163379009
 
  0.00000000E+00  0.00000000E+00  0.00000000E+00
  0.00000000E+00  0.00000000E+00  0.00000000E+00
  0.00000000E+00  0.00000000E+00  0.00000000E+00
  0.00000000E+00  0.00000000E+00  0.00000000E+00
  0.00000000E+00  0.00000000E+00  0.00000000E+00
  0.00000000E+00  0.00000000E+00  0.00000000E+00
  0.00000000E+00  0.00000000E+00  0.00000000E+00
  0.00000000E+00  0.00000000E+00  0.00000000E+00
  0.00000000E+00  0.00000000E+00  0.00000000E+00
  0.00000000E+00  0.00000000E+00  0.00000000E+00
