Sm1 F3                                  
   1.00000000000000     
     4.1701797255477873   -0.0070986849265366    0.0015257982672553
    -2.0737806452032976    3.6176042898625109   -0.0023298253098732
     0.0030771250880405    0.0000515608155656    4.5133127399479385
   Sm   F 
     1     3
Direct
  0.0789679959841546  0.8315028403464223  0.9589246180673706
  0.0788708392630483  0.8329670710488252  0.4591870681159556
  0.7453267471912360  0.1656581174300475  0.9561016328496056
  0.4121362530985177  0.4993079902377008  0.9598827550713774
 
  0.00000000E+00  0.00000000E+00  0.00000000E+00
  0.00000000E+00  0.00000000E+00  0.00000000E+00
  0.00000000E+00  0.00000000E+00  0.00000000E+00
  0.00000000E+00  0.00000000E+00  0.00000000E+00
