Na2 Y1 Ho1 F8                           
   1.00000000000000     
     5.4062565099949840    0.0100052793037666   -0.0057758265157974
    -0.0099993533971905    5.4048157775665819   -0.0055447324668568
     0.0029984735425034    0.0019400373333605    5.5382623999934886
   Na   Y    Ho   F 
     2     1     1     8
Direct
  0.5358844242096813  0.7124270774648490  0.6681255974650919
  0.0356821429709862  0.2122322839556987  0.6682520622178743
  0.5358776449808600  0.2124340882404329  0.1683390415094330
  0.0359366666363875  0.7123726538941364  0.1685315894618552
  0.7858583061271415  0.4631889898533655  0.9392129774254997
  0.2849434838563256  0.4630012733179171  0.3976415228297743
  0.2849829681299123  0.9616464535546012  0.9392228128366918
  0.7860012119064581  0.9618877310839281  0.3973651850611593
  0.2849482395077431  0.9620391680961524  0.3976530075652546
  0.2848559715761838  0.4626810767907677  0.9393168905439518
  0.7864885211789338  0.4634106173642549  0.3975065356378915
  0.7859596418107180  0.9620555509529877  0.9391575887849007
 
  0.00000000E+00  0.00000000E+00  0.00000000E+00
  0.00000000E+00  0.00000000E+00  0.00000000E+00
  0.00000000E+00  0.00000000E+00  0.00000000E+00
  0.00000000E+00  0.00000000E+00  0.00000000E+00
  0.00000000E+00  0.00000000E+00  0.00000000E+00
  0.00000000E+00  0.00000000E+00  0.00000000E+00
  0.00000000E+00  0.00000000E+00  0.00000000E+00
  0.00000000E+00  0.00000000E+00  0.00000000E+00
  0.00000000E+00  0.00000000E+00  0.00000000E+00
  0.00000000E+00  0.00000000E+00  0.00000000E+00
  0.00000000E+00  0.00000000E+00  0.00000000E+00
  0.00000000E+00  0.00000000E+00  0.00000000E+00
