Li3 Fe1 F6                              
   1.00000000000000     
     4.7231709302187808    0.0277814021638728   -0.0084148658354426
    -0.0300683000043733    4.2072032669143722   -2.4324783843878781
     0.0059934541097945    0.0047567033095758    4.8663793046306303
   Li   Fe   F 
     3     1     6
Direct
  0.7350248905901493  0.6039663027134072  0.7409635265694986
  0.7356435449906965  0.9355276138743704  0.4064121661255590
  0.2349007872829241  0.6021569253428110  0.7401175353589663
  0.2364643010560610  0.2696103592063760  0.0740564913297267
  0.0008008934947168  0.2816590074821388  0.3967834011864111
  0.0006434392346827  0.9458805172753799  0.7632775921106564
  0.4721435216066835  0.9458244118042827  0.0601780592772183
  0.0008610641319180  0.5802641741185640  0.0606125071488311
  0.4724658747152223  0.2833259518079900  0.7645627760094788
  0.4724651766494251  0.5804235760963598  0.3979101355717869
 
  0.00000000E+00  0.00000000E+00  0.00000000E+00
  0.00000000E+00  0.00000000E+00  0.00000000E+00
  0.00000000E+00  0.00000000E+00  0.00000000E+00
  0.00000000E+00  0.00000000E+00  0.00000000E+00
  0.00000000E+00  0.00000000E+00  0.00000000E+00
  0.00000000E+00  0.00000000E+00  0.00000000E+00
  0.00000000E+00  0.00000000E+00  0.00000000E+00
  0.00000000E+00  0.00000000E+00  0.00000000E+00
  0.00000000E+00  0.00000000E+00  0.00000000E+00
  0.00000000E+00  0.00000000E+00  0.00000000E+00
