Be Bi Cs F  Rb
 1.0000000000000000
     6.1337531484150389    0.0000000000000000    0.0000000000000000
    -0.0391710604289928    6.1332723911363747    0.0000000000000000
    -0.0602545635546461    0.1850221695925550   10.9784506929284476
 Be  Bi  Cs  F   Rb 
   2   1   1  12   4
Cartesian
  0.6380714912488745  4.1882985513990629 10.3055517211918453
  3.7377495302586019  0.8814675934114857  7.1171927346949904
  0.6941600798189301  3.5866856846141255  2.0754136541473969
  3.7786080805948781  0.5291205530944881  1.0463959164811656
  5.4505419638727419  2.1370652368416465  2.9749415557640617
  5.0090998228787242  1.6953983777074362  6.7211412437211129
  3.6710467561644977  5.6519035310016461  6.4075615452175629
  2.0950845347655722  4.9537391024090969  3.0191561290070323
  0.6388462462931688  4.3971578576902433  8.8458370500696759
  5.4970999931711866  3.3363231088104088 10.8428260059084405
  0.6964189071796044  5.3453956838251919  0.1976379718977261
  2.1028863660437502  2.1115021866973995  2.9306635089556790
  2.4733259449000813  1.7328970281342695  6.7474186454351965
  1.9043414631180557  3.3416442266252693 10.8426440919787019
  5.3938624378610260  4.9657554828398833  2.9763831255022426
  3.7367881615385929  0.6852974329195078  8.7033375869855192
  0.7182671914177013  0.5346197310715475  4.8121668930931474
  3.7003892308593582  3.8759338814569846  8.6216902964988993
  3.7587821181277450  3.4801630104277708  4.7224345754162913
  0.6659527217472456  1.1871277371313405  8.9126060059502983
