P2 Pb1 O1 F10                           
   1.00000000000000     
     5.0102902778303742    0.0019982735452883   -1.7258743998160657
    -0.5908838257845975    4.9859950338692665   -1.7018298864436443
    -0.0137380116793078   -0.0287275600439100    8.0488874220911910
   P    Pb   O    F 
     2     1     1    10
Direct
  0.1646065700271652  0.2263285621097477  0.5426286414473747
  0.3896559538897716  0.4489691517212039  0.9922940879752586
  0.7760502819052914  0.8377539164944849  0.7673521701104582
  0.2775264252212495  0.3380642968717141  0.7673947056620638
  0.1676401055233245  0.6728477813070602  0.9943071659752405
  0.1682388070033158  0.2271825705526037  0.9949886297792628
  0.3869086046048848  0.0020761291478125  0.5404252203319986
  0.6140102913633062  0.2271001357147421  0.9942291482620927
  0.6137862943866313  0.6729193595574581  0.9935047135344196
  0.3858352013992773  0.4476206179430491  0.5391968030453164
  0.9400861920526878  0.4477360178311480  0.5403941388556356
  0.0525056257509702  0.1148532716748703  0.3196116727040435
  0.5016118605267278  0.5600010715312028  0.2153317132637174
  0.9408530583190065  0.0025220517185127  0.5418687057757967
 
  0.00000000E+00  0.00000000E+00  0.00000000E+00
  0.00000000E+00  0.00000000E+00  0.00000000E+00
  0.00000000E+00  0.00000000E+00  0.00000000E+00
  0.00000000E+00  0.00000000E+00  0.00000000E+00
  0.00000000E+00  0.00000000E+00  0.00000000E+00
  0.00000000E+00  0.00000000E+00  0.00000000E+00
  0.00000000E+00  0.00000000E+00  0.00000000E+00
  0.00000000E+00  0.00000000E+00  0.00000000E+00
  0.00000000E+00  0.00000000E+00  0.00000000E+00
  0.00000000E+00  0.00000000E+00  0.00000000E+00
  0.00000000E+00  0.00000000E+00  0.00000000E+00
  0.00000000E+00  0.00000000E+00  0.00000000E+00
  0.00000000E+00  0.00000000E+00  0.00000000E+00
  0.00000000E+00  0.00000000E+00  0.00000000E+00
