Al1 F3                                  
   1.00000000000000     
     2.7157350976386669    0.0031989002261288   -0.7917610596849644
    -0.3812904507638630    3.3834235707894620   -1.2907407320478794
     0.0253866936652870   -0.0189034149892196    5.0787026295243010
   Al   F 
     1     3
Direct
  0.6384112689467480  0.5195340799197260  0.2121552459372555
  0.2676414010738190  0.6505673615452998  0.4739218357409327
  0.6377572426649646  0.0196242634614358  0.2118612076308543
  0.0084308995341480  0.3881313125906283  0.9502677986378495
 
  0.00000000E+00  0.00000000E+00  0.00000000E+00
  0.00000000E+00  0.00000000E+00  0.00000000E+00
  0.00000000E+00  0.00000000E+00  0.00000000E+00
  0.00000000E+00  0.00000000E+00  0.00000000E+00
