F  Nb Tl
 1.0000000000000000
     5.7952381028424327    0.0000000000000000    0.0000000000000000
     2.8997834646156111    5.0034053557352092    0.0000000000000000
     2.9054262329065872    1.6615931738378709    5.3287690414542741
 F   Nb  Tl 
   6   1   1
Cartesian
  5.3388467389267520  1.3219627429193976  4.2154533817597795
  5.4956119302135678  4.7540162608172709  1.9191902056108530
  8.2346828985749170  4.7527830961213606  1.9302387547558069
  6.8684006869567549  3.9609696920424589  4.2085553239388451
  2.5994805255428277  1.3221757636813878  4.2143972973019741
  3.9656906825773555  2.1189542914600747  1.9343269926802087
  6.8674686066316974  5.5426046865209049  3.0703678430000423
  6.8624214136235437  2.2068747896987730  0.4085619946614180
