Ca1 Mn3 F8
1.0
   5.3196411132812500    0.0000000000000000    0.0176000483334068
   0.0064466567308867    5.3099278417012803   -0.0030063169542695
   0.0000000000000000    0.0000000000000000    5.3266530036926270
Ca Mn F
1 3 8
direct
   0.1641231328248978    0.8688902854919435    0.8509071469306946 Ca
   0.1627909541130066    0.3701142370700836    0.3503469526767731 Mn
   0.6635909080505371    0.8689841628074647    0.3516569137573242 Mn
   0.6631572842597961    0.3695592582225800    0.8505718708038330 Mn
   0.4176867306232453    0.6149396300315857    0.5945682525634766 F
   0.9070839881896974    0.6141504049301149    0.5963793396949768 F
   0.4169590175151826    0.1225040182471275    0.1054920479655266 F
   0.9086636304855348    0.6155400276184083    0.1064377278089523 F
   0.4190473556518555    0.1252408921718597    0.5953025817871094 F
   0.9095187187194825    0.1231751665472984    0.5954979062080383 F
   0.9061608910560609    0.1262207925319672    0.1063432022929192 F
   0.4181002974510193    0.6136611700057985    0.1048412770032883 F
