Cs1 Mo1 F6                              
   1.00000000000000     
     5.2094303088357252   -0.0071093835365899   -2.8440550496571788
    -3.3534571529040735    4.8488823743900991    0.0186459754535061
     0.0139724719080113    0.0205174097008200    6.3225761980116628
   Cs   Mo   F 
     1     1     6
Direct
  0.8943745706739780  0.2952180198449433  0.8163700435925856
  0.8950006952385285  0.7952724879100499  0.3167688450479321
  0.6025048029994987  0.4182338403037850  0.1139039105429690
  0.1870535864009080  0.1724953380798655  0.5188453185775032
  0.5997941284551450  0.8738793334712677  0.1076676455005705
  0.7392038223316409  0.7199003584826958  0.5294611645725046
  0.1906202063087388  0.7175921044579860  0.5269873842879745
  0.0508333323021028  0.8701606272154125  0.1039217278121185
 
  0.00000000E+00  0.00000000E+00  0.00000000E+00
  0.00000000E+00  0.00000000E+00  0.00000000E+00
  0.00000000E+00  0.00000000E+00  0.00000000E+00
  0.00000000E+00  0.00000000E+00  0.00000000E+00
  0.00000000E+00  0.00000000E+00  0.00000000E+00
  0.00000000E+00  0.00000000E+00  0.00000000E+00
  0.00000000E+00  0.00000000E+00  0.00000000E+00
  0.00000000E+00  0.00000000E+00  0.00000000E+00
