Na1 Bi2 F7
1.0
   3.8205823898315430    0.0000000000000000   -1.1325539350509644
  -0.7143744632815016    5.2288196216199143   -2.4993708133697496
   0.0000000000000000    0.0000000000000000    6.7890224456787109
Na Bi F
1 2 7
direct
   0.0391827821731567    0.2513343095779419    0.9935520291328431 Na
   0.3864736855030060    0.5956068634986877    0.6834838390350342 Bi
   0.7170561552047729    0.9371967315673828    0.3649284541606903 Bi
   0.8781440854072571    0.8078366518020631    0.6659055948257446 F
   0.3750623166561127    0.0805715695023537    0.6463745236396790 F
   0.2054033726453781    0.6535177230834961    0.3216887712478638 F
   0.2030839771032333    0.1762117445468903    0.3187000751495361 F
   0.5529918670654297    0.5475005507469177    0.0195143315941095 F
   0.8813162446022034    0.3708458244800568    0.6699606180191040 F
   0.5502631068229675    0.9839109182357789    0.0194304641336203 F
