Sr1 Zr1 F6                              
   1.00000000000000     
     4.9203746871366913    0.0247307016743411   -0.5715704253226407
    -0.7019379168606031    4.8708332669365264   -0.5903035174444020
     0.0322171863863959    0.0304451966847959    4.9577626153685745
   Sr   Zr   F 
     1     1     6
Direct
  0.2695103438772081  0.0790906690511243  0.5071002982872553
  0.7693353143398940  0.5792698059662413  0.0075664633389696
  0.4784971981923360  0.6584363898040622  0.7189727101609225
  0.6870914703313069  0.8698373939530688  0.2968252288938107
  0.4784822127540053  0.2887539581117017  0.0930617915997098
  0.0590891887769849  0.8714781492712619  0.9230551342609253
  0.8474638049904505  0.2878471644384593  0.7168631238723934
  0.0602971614921764  0.5026088654440436  0.2978440105610165
 
  0.00000000E+00  0.00000000E+00  0.00000000E+00
  0.00000000E+00  0.00000000E+00  0.00000000E+00
  0.00000000E+00  0.00000000E+00  0.00000000E+00
  0.00000000E+00  0.00000000E+00  0.00000000E+00
  0.00000000E+00  0.00000000E+00  0.00000000E+00
  0.00000000E+00  0.00000000E+00  0.00000000E+00
  0.00000000E+00  0.00000000E+00  0.00000000E+00
  0.00000000E+00  0.00000000E+00  0.00000000E+00
