Pr2 O2 F2
1.0
   3.9424428939819336    0.0000000000000000   -0.0070474673993887
  -0.0221605625709192    3.9483614353720724   -0.0219119023531676
   0.0000000000000000    0.0000000000000000    6.0333175659179688
Pr O F
2 2 2
direct
   0.5130245089530945    0.0421296767890453    0.9840751886367797 Pr
   0.0138069316744804    0.5409795045852662    0.5641394853591919 Pr
   0.0145857036113739    0.0405954271554947    0.7732093930244446 O
   0.5144661068916321    0.5407891869544983    0.7748180627822876 O
   0.5139773488044739    0.0403065271675587    0.3890058398246765 F
   0.0147749828174710    0.5408062338829041    0.1585248857736588 F
