Hf4 F16
1.0
   5.7162938117980957    0.0000000000000000   -0.3793279826641073
  -0.0553368380580157    5.3704615267738829    0.6793040633201599
   0.0000000000000000    0.0000000000000000    7.7884879112243652
Hf F
4 16
direct
   0.3783993124961853    0.9553728699684143    0.0131302513182163 Hf
   0.5988646149635315    0.0419337078928947    0.5157487392425537 Hf
   0.0920231193304062    0.5817472338676453    0.3581218719482422 Hf
   0.8753869533538819    0.4842046797275543    0.8625785112380981 Hf
   0.6643776297569275    0.7599942088127136    0.9729021191596985 F
   0.1197880506515503    0.7580071687698364    0.8900317549705505 F
   0.6786626577377319    0.6928606629371643    0.6761793494224548 F
   0.6106913685798645    0.2685309350490570    0.9621956944465637 F
   0.8395317792892457    0.8241966366767883    0.4118250906467438 F
   0.3325253427028656    0.7968095541000366    0.4715865850448608 F
   0.3314428329467773    0.2996466159820557    0.4457302391529083 F
   0.0713104009628296    0.5188229680061340    0.6356186866760254 F
   0.1508539766073227    0.2478135824203491    0.9358134269714355 F
   0.8222156167030334    0.3180500268936157    0.4081858694553375 F
   0.9492039084434510    0.4701400101184845    0.1356504708528519 F
   0.4026143550872803    0.0295689366757870    0.7368394136428833 F
   0.3710553348064423    0.6138392686843872    0.1831094622612000 F
   0.5228801369667053    0.0600709207355976    0.2382230460643768 F
   0.8008506298065186    0.1810668259859085    0.7115986943244934 F
   0.0975305587053299    0.9216338992118837    0.1824198663234711 F
