K1 Bi1 F4
1.0
   3.9659464359283452    0.0000000000000000    0.0089301392436032
  -0.0229496471508241    3.9612214955795362    0.0010524104582147
   0.0000000000000000    0.0000000000000000    6.1895136833190918
K Bi F
1 1 4
direct
   0.8021811842918396    0.9753638505935669    0.3732508718967438 K
   0.3018010556697845    0.4755480289459229    0.8736398816108704 Bi
   0.8021736741065979    0.4756999015808105    0.0830278098583222 F
   0.3030956983566284    0.9754485487937928    0.0826978161931038 F
   0.8019942641258240    0.4748560190200806    0.6646724343299866 F
   0.3017863333225250    0.9747122526168824    0.6650134921073914 F
