Li2 Mn1 F4
1.0
   3.1024582386016846    0.0000000000000000    0.0025961548089983
   0.0107708210425450    5.0614404517050451   -1.3734803199768066
   0.0000000000000000    0.0000000000000000    5.0127725601196289
Li Mn F
2 1 4
direct
   0.5540919303894043    0.9708722829818726    0.9112353920936584 Li
   0.0520919300615788    0.9699698090553284    0.4113716781139374 Li
   0.0522024333477020    0.4705786406993866    0.9111959338188171 Mn
   0.0542721785604954    0.1822780072689056    0.1332027167081833 F
   0.0538907349109650    0.7583993673324585    0.6895105242729187 F
   0.5537399053573608    0.2181795090436935    0.6693776249885559 F
   0.5537838339805603    0.7231039404869078    0.1529358029365539 F
