Rb1 Bi1 F4                              
   1.00000000000000     
     4.5098918689548935    0.0241713114969137   -0.0151203083387341
     0.0284836062318691    4.4755057052176843    0.2029428823393610
    -0.0572461866235561    0.2774585945972765    6.4229624439742405
   Rb   Bi   F 
     1     1     4
Direct
  0.2387180215847362  0.7268166754088697  0.5026897898004247
  0.7340417750081865  0.1633669089839010  0.9384687859391034
  0.7270553751438319  0.8461833941641334  0.2286318967315097
  0.7481069554413808  0.7229022732245406  0.8263019101425965
  0.7140960428756216  0.2440491807593037  0.5980818404744834
  0.2341609099557036  0.1382543587972181  0.8981425146829171
 
  0.00000000E+00  0.00000000E+00  0.00000000E+00
  0.00000000E+00  0.00000000E+00  0.00000000E+00
  0.00000000E+00  0.00000000E+00  0.00000000E+00
  0.00000000E+00  0.00000000E+00  0.00000000E+00
  0.00000000E+00  0.00000000E+00  0.00000000E+00
  0.00000000E+00  0.00000000E+00  0.00000000E+00
