Na2 Al2 F8
1.0
   4.9102611541748047    0.0000000000000000   -0.1984870135784161
   0.0134431207141083    5.8023134905537441    0.0090360129252078
   0.0000000000000000    0.0000000000000000    5.0764756202697754
Na Al F
2 2 8
direct
   0.7598710060119629    0.2280576378107071    0.7003432512283325 Na
   0.7600131034851074    0.9149352312088013    0.1997623890638351 Na
   0.2599143981933594    0.7171251177787781    0.7003159523010254 Al
   0.2596374452114105    0.4239628314971924    0.1999348551034927 Al
   0.4518810212612152    0.4746968746185303    0.8908333182334900 F
   0.0690652057528496    0.6660988926887512    0.0085627725347877 F
   0.0232435707002878    0.2246339768171310    0.0708341971039772 F
   0.0243223998695612    0.9174403548240662    0.5714330077171325 F
   0.4965429306030273    0.2234984338283539    0.3299388289451599 F
   0.4966487586498260    0.9165891408920288    0.8287480473518372 F
   0.4534406960010529    0.6653857827186584    0.3906284272670746 F
   0.0668359622359276    0.4768416583538055    0.5092306137084961 F
