Al1 H3 O1 F4                            
   1.00000000000000     
     4.8435131474076023   -0.4520447619253312    0.9065042403955701
    -1.4828071414065069    4.7477464773175724   -0.9801919460883339
     0.4055274724527536    0.3928667792218859    4.5416024697361221
   Al   H    O    F 
     1     3     1     4
Direct
  0.9217978215930284  0.7180927804989552 -0.0529114886146035
  0.4866959016725215  0.1630566952052922  0.5822664021958475
  0.3333166912503819  0.5131023374819800  0.1111398298501337
  0.1648703250593257  0.0512703695575922  0.5128288947470074
  0.2872703315673535 -0.0043127073118079  0.6129842435305864
  0.7898791649572845  0.5953351090263257  0.6285375492532741
  0.1204791609077383  0.5235063310058077  0.0006389752658673
  0.5177220763708704  0.5022254089095671  0.1648550056825418
  0.9489388681847197  0.0080630442825651  0.1784400918250593
 
  0.00000000E+00  0.00000000E+00  0.00000000E+00
  0.00000000E+00  0.00000000E+00  0.00000000E+00
  0.00000000E+00  0.00000000E+00  0.00000000E+00
  0.00000000E+00  0.00000000E+00  0.00000000E+00
  0.00000000E+00  0.00000000E+00  0.00000000E+00
  0.00000000E+00  0.00000000E+00  0.00000000E+00
  0.00000000E+00  0.00000000E+00  0.00000000E+00
  0.00000000E+00  0.00000000E+00  0.00000000E+00
  0.00000000E+00  0.00000000E+00  0.00000000E+00
