K2 H6 O2 F4
1.0
   4.5604505538940430    0.0000000000000000    0.6124598383903505
   0.9566549219608184    5.7811158251246155    0.5695572495460518
   0.0000000000000000    0.0000000000000000    7.3759517669677734
K H O F
2 6 2 4
direct
   0.6047672033309937    0.2683044373989106    0.9866311550140382 K
   0.2118117809295654    0.5886270999908447    0.5231519341468811 K
   0.3209685683250427    0.7355837225914001    0.0972550436854363 H
   0.4903025329113007    0.1236696764826775    0.4154402315616608 H
   0.6608222723007202    0.7367264628410339    0.8217121362686158 H
   0.1552356481552124    0.1213811784982681    0.6891379952430726 H
   0.8391510844230652    0.1524948328733444    0.4176650345325471 H
   0.9715884327888489    0.7066587805747986    0.0951647162437439 H
   0.6533747911453247    0.2108941376209259    0.3599824607372284 O
   0.1594224572181701    0.6514762639999390    0.1518783718347549 O
   0.6638298034667969    0.6495244503021240    0.7060156464576722 F
   0.1530332714319229    0.2086348980665207    0.8059766888618470 F
   0.1629780083894730    0.0587953850626945    0.5182207226753235 F
   0.6512202620506287    0.7997849583625793    0.9941670894622804 F
