F  Mg F  K  Al F                                                                                    
 1.000
    5.1887478730802936    0.0000000000000000    0.0000000000000000
   -2.5930080512028630    4.4919725676880233    0.0000000000000000
   -0.0091826517980159   -0.0078463629715745    5.7286502346350217
   Al   F    K    Mg
    1    6    1    1
Direct
    0.4484161138534547    0.6968206167221072    0.5590141415596009     Al1
    0.7192457318305970    0.0040292078629136    0.3773384094238281      F1
    0.1405037939548492    0.4264840781688691    0.7406781911849977      F2
    0.4865700900554658    0.4263202846050262    0.3762654364109040      F3
    0.4863923192024232    0.0046676089987159    0.7403542995452881      F4
    0.7184463143348695    0.6585117578506470    0.7411148548126220      F5
    0.1412549316883088    0.6598783731460574    0.3775953948497773      F6
    0.1158025562763214    0.0303351487964392    0.0584678798913956      K1
    0.7822787165641786    0.3631562888622284    0.5591500997543335     Mg1
