Al1 F3                                  
   1.00000000000000     
     2.7040198821207384    0.0059339814719146    0.8257364590272525
     0.3909394275541501    3.3846344907110684   -1.2850887444050318
    -0.0857534891901933    0.0414450785088167    5.1549998570459099
   Al   F 
     1     3
Direct
  0.7487066743352646  0.0442855564112294  0.0272506330461784
  0.1187736663683121  0.1712048559854520  0.2843008402045135
  0.7487101918945469  0.5440933091956960  0.0264534529550146
  0.3781135283378505  0.9172416080689919  0.7706397511203766
 
  0.00000000E+00  0.00000000E+00  0.00000000E+00
  0.00000000E+00  0.00000000E+00  0.00000000E+00
  0.00000000E+00  0.00000000E+00  0.00000000E+00
  0.00000000E+00  0.00000000E+00  0.00000000E+00
