Al F  O  Pr
 1.0000000000000000
     7.0132668174677022    0.0000000000000000    0.0000000000000000
    -1.1751327394013682    6.6438042315809325    0.0000000000000000
    -1.7438654368848889   -1.3345615270361024    6.6573615148364205
 Al  F   O   Pr 
   1   3   9   6
Cartesian
 -0.7606149883299598  5.7996833298259745  0.5349743802044160
  2.9250356441416479 -0.4038641418484276  4.2175903644237573
  1.2959879504125926  4.9585266482980863  1.0782092464748589
  0.7118095568700716  2.1701614072124431  3.0518462939704971
  5.3622082473627239  0.7959044129858784  4.1948551544823367
  4.4199187286705577  1.8566101347737647  1.6224486860216432
  4.4113254067438419  6.3167377791142796  0.1151002244069938
 -1.2664771939911568  5.5582427278522673  2.2835235738540001
  3.2060582589054181  3.9680237342304969  3.0961409668063626
  1.6049589841869356  1.5175097151394366  5.8520279601541461
 -0.2287243419276742  4.3374531620876624  4.8016676098152287
  1.0972090676900030  0.8559355592167892  0.1356736524767859
  4.3665033377734668  3.0572656627133883  5.9460285992715729
  2.2739917763537800  2.6791622869332046  1.2524959889562368
  1.9329074883171389  3.6922676448742151  5.0197343629927733
  5.3258738102662155  3.0828019854269830  3.6192422561239477
  3.9246693404841744  0.7113458063086687  6.1967400902353260
  4.5904429629251169 -0.4313908869846200  2.2868022137377766
  0.4724355902224596 -0.1081485716280900  4.5142036073797192
