Li4 Fe2 F8
1.0
   5.8746957778930664    0.0000000000000000   -2.2066180706024170
  -0.2194868544166858    5.0521058995566710   -1.1229068040847769
   0.0000000000000000    0.0000000000000000    5.3257446289062500
Li Fe F
4 2 8
direct
   0.5501958131790161    0.6400782465934753    0.2524132728576660 Li
   0.4213460683822632    0.9271519780158998    0.7907695770263672 Li
   0.1240113377571106    0.4146389365196228    0.7534077167510986 Li
   0.8504221439361571    0.9353225827217101    0.7664384245872498 Li
   0.9985187649726868    0.6705152988433838    0.2491374462842942 Fe
   0.2866206467151642    0.1663096845149994    0.2868091762065887 Fe
   0.7002170681953430    0.7892758846282959    0.0138609707355499 F
   0.2945773005485535    0.5470914840698242    0.5204573869705200 F
   0.5516715645790100    0.9886455535888673    0.5200357437133789 F
   0.1078099459409714    0.0471829771995544    0.5189993977546692 F
   0.8491085171699524    0.5920604467391968    0.5158819556236267 F
   0.9873760938644409    0.2841411232948303    0.0043476689606905 F
   0.4221171140670776    0.2927392423152924    0.0347836874425411 F
   0.1985684186220169    0.7815647721290588    0.0232344847172499 F
