Na2 Li2 Ti2 F12
1.0
   5.8627033233642569    0.0000000000000000    0.1371558159589771
   0.0547279058748849    6.0137657020973059    0.0853526890277860
   0.0000000000000000    0.0000000000000000    8.2981557846069336
Na Li Ti F
2 2 2 12
direct
   0.5708242058753967    0.3111905455589294    0.8419706225395203 Na
   0.0904052779078484    0.8235158324241638    0.3503589332103729 Na
   0.8263644576072694    0.5729430317878723    0.0939306467771530 Li
   0.0835614055395126    0.3173469305038452    0.3793670535087585 Li
   0.5815194845199585    0.3160005509853363    0.3520011901855469 Ti
   0.0818702653050423    0.8237313032150269    0.8425711393356323 Ti
   0.8521829843521119    0.0429596975445747    0.8473329544067383 F
   0.8462239503860475    0.5908664464950562    0.8646588921546936 F
   0.3028462529182434    0.0444337017834187    0.8511846661567688 F
   0.3326093256473541    0.1066347956657410    0.3482698202133179 F
   0.3267113268375397    0.5309077501296997    0.3507339656352997 F
   0.0767412856221199    0.8157718181610106    0.6182271838188171 F
   0.6049405336380005    0.3469346165657043    0.1172292977571487 F
   0.8414720892906190    0.5378499031066895    0.3305157721042633 F
   0.8394462466239930    0.1097923740744591    0.3500443100929261 F
   0.0535823851823807    0.7981506586074829    0.0807053819298744 F
   0.5886637568473816    0.3253750205039978    0.5755847096443176 F
   0.3029658496379852    0.5945706963539124    0.8472550511360168 F
