Ba1 Te1 F6
1.0
   4.4138054847717285    0.0000000000000000   -0.2707296609878541
   0.2853454626054947    5.1975712757683725   -0.2312711477279660
   0.0000000000000000    0.0000000000000000    5.2645440101623535
Ba Te F
1 1 6
direct
   0.3809179961681366    0.0602470524609089    0.1325542926788330 Ba
   0.7734184861183167    0.5649950504302979    0.6381520032882690 Te
   0.4016591012477875    0.4722230732440948    0.7856732010841370 F
   0.4535645544528961    0.5353060364723206    0.3307662308216095 F
   0.8917931914329529    0.2038895785808563    0.4193148016929626 F
   0.4723592102527617    0.9020101428031922    0.6454557776451111 F
   0.8882495164871217    0.2879481315612793    0.8924666047096252 F
   0.8756922483444214    0.7688778638839722    0.9935020208358765 F
