K1 Li2 Ho1 F6                           
   1.00000000000000     
     3.4296836149381922   -0.0051347838989135    1.1601626620879522
     0.4522281014165931    6.9607210389380576   -1.2929348123358402
    -0.0488322822048018    0.1721327360110525    5.7255287227285647
   K    Li   Ho   F 
     1     2     1     6
Direct
  0.4038274623421403  0.6990525242740594  0.2627087301339359
  0.6443543663046677  0.8847065082084475  0.7882200187170673
  0.1541034268407893  0.5052020695517206  0.7560123763942270
  0.8750192935890655  0.2132990496180902  0.3222022635921515
  0.4891193169515588  0.0863006425122807  0.0914088340785143
  0.7546223070511322  0.5046093941028982  0.5672940308393998
  0.2605667377991812  0.2475729694052830  0.5545415384450308
 -0.0051336952392144  0.4184736289154928  0.0661780745872385
  0.1099310978236274  0.7777932942396847  0.8534604524815015
  0.8055603895428423  0.9407945956153824  0.4638044666610897
 
  0.00000000E+00  0.00000000E+00  0.00000000E+00
  0.00000000E+00  0.00000000E+00  0.00000000E+00
  0.00000000E+00  0.00000000E+00  0.00000000E+00
  0.00000000E+00  0.00000000E+00  0.00000000E+00
  0.00000000E+00  0.00000000E+00  0.00000000E+00
  0.00000000E+00  0.00000000E+00  0.00000000E+00
  0.00000000E+00  0.00000000E+00  0.00000000E+00
  0.00000000E+00  0.00000000E+00  0.00000000E+00
  0.00000000E+00  0.00000000E+00  0.00000000E+00
  0.00000000E+00  0.00000000E+00  0.00000000E+00
