Rb2 Pb1 Cl2 F2                          
   1.00000000000000     
     4.2802566021890813   -0.0021466503569562   -0.0131217323671780
    -0.0053481479810427    6.1690741469918651   -2.8026048072579739
     0.0114516862881181   -0.1257068439929594    7.6558014461984119
   Rb   Pb   Cl   F 
     2     1     2     2
Direct
  0.5147395751793112  0.2321580294364029  0.0568015674600907
  0.5163483251579865  0.6477227963691997  0.7422264632578238
  0.0118375455328780  0.0233347900803295  0.5142529054366407
  0.5128188822730383  0.7831990857556980  0.2078426044555983
  0.0151018484244357  0.3845890963916567  0.4115426121893386
  0.5164071183957781  0.2008249618955589  0.6733108019828612
  0.0161293213404334  0.9612961816586028  0.8017814823147186
 
  0.00000000E+00  0.00000000E+00  0.00000000E+00
  0.00000000E+00  0.00000000E+00  0.00000000E+00
  0.00000000E+00  0.00000000E+00  0.00000000E+00
  0.00000000E+00  0.00000000E+00  0.00000000E+00
  0.00000000E+00  0.00000000E+00  0.00000000E+00
  0.00000000E+00  0.00000000E+00  0.00000000E+00
  0.00000000E+00  0.00000000E+00  0.00000000E+00
