K2 Y4 F14
1.0
   6.8887233734130859    0.0000000000000000   -0.0514592826366422
   3.5537997118183293    5.9040048240414134   -0.0156240351498115
   0.0000000000000000    0.0000000000000000    6.9511623382568359
K Y F
2 4 14
direct
   0.0562054812908173    0.0837932601571083    0.4201364815235138 K
   0.6678363680839539    0.4745750725269318    0.9224561452865601 K
   0.3023027181625366    0.4540641605854034    0.4217305183410645 Y
   0.0394094586372375    0.7192102670669556    0.9215680360794067 Y
   0.4224185943603516    0.1024129688739776    0.9227430224418640 Y
   0.6847786903381348    0.8373711705207825    0.4225138723850250 Y
   0.6980148553848268    0.7800472378730773    0.1017803475260735 F
   0.3649394512176514    0.4402669370174407    0.1006367653608322 F
   0.7602293491363525    0.0741646364331245    0.9221864342689514 F
   0.0253342427313329    0.7781229615211486    0.6000176668167114 F
   0.0673307701945305    0.3823763132095337    0.9231292605400085 F
   0.0278442595154047    0.7762548327445983    0.2416734248399734 F
   0.3619509637355804    0.1142592504620552    0.6014838814735413 F
   0.2558963000774384    0.8852420449256897    0.9206926226615906 F
   0.3611539602279663    0.1154960319399834    0.2433159649372101 F
   0.7009063959121704    0.7789384126663208    0.7440717220306396 F
   0.4692469537258148    0.6701784133911133    0.4238077104091644 F
   0.3624342083930970    0.4414923191070556    0.7431257367134094 F
   0.9647639393806456    0.4834967255592346    0.4217269122600555 F
   0.6569058299064636    0.1745033413171768    0.4224374294281006 F
