F  K  O  S 
 1.0000000000000000
     5.3864554433383800    0.0000000000000000    0.0000000000000000
    -0.0643721938857928    5.3586041492995111    0.0000000000000000
    -2.6718263384099510   -2.9328950433254213    6.6701864799191020
 F   K   O   S  
   2   2   6   2
Cartesian
  5.1927202781102935  5.0356750714418412  0.1842432656231142
 -0.1704229049028497  0.2272710130825369  5.5495801579783954
  2.5244493308158842  1.3153960374814733  1.3101201528056534
  2.5602664526304362 -1.3310582835307290  4.4881738116128602
  1.0185688931828361  4.0351543796403115  1.9869954180212746
 -0.1385968897830484  2.6535913946737675  5.3862145766019820
  3.9863633703468602  4.0597955347773871  2.0157179597796042
  1.0418086508837361  1.2825528901210994  3.7680148533831219
 -1.3903072389248423  1.3057427162803690  3.7998979104153872
 -0.2172267011060164  2.6283731299214312  0.4587871877300483
 -0.1611359888511918  1.4782737586117909  4.5333815644632205
 -0.1982923125156911  3.8365973745183464  1.2656124285443340
