Li2 Mn1 F4                              
   1.00000000000000     
     2.7681050474265789    0.0043535080860063    0.0013018242923136
    -1.3799443431682861    4.8465699369647055   -1.1180507911621267
    -0.0062265567779490    0.0257240028356245    5.2004891334098469
   Li   Mn   F 
     2     1     4
Direct
  0.3794176524697399  0.3623618875736948  0.6610828542767485
  0.1453346628120378  0.8850398204651583  0.8847231358984676
  0.6222599973835549  0.8389112179443518  0.3604927075976460
  0.7463787406789892  0.0913292395127727  0.7228004868922675
  0.0013696033749192  0.5959739264388101  0.4990446728289759
  0.5281620297200645  0.6473804827651291  0.9781538348205890
  0.2418673553054032  0.0816851947307207  0.2608437332948942
 
  0.00000000E+00  0.00000000E+00  0.00000000E+00
  0.00000000E+00  0.00000000E+00  0.00000000E+00
  0.00000000E+00  0.00000000E+00  0.00000000E+00
  0.00000000E+00  0.00000000E+00  0.00000000E+00
  0.00000000E+00  0.00000000E+00  0.00000000E+00
  0.00000000E+00  0.00000000E+00  0.00000000E+00
  0.00000000E+00  0.00000000E+00  0.00000000E+00
