Ba1 Bi1 F5                              
   1.00000000000000     
     4.0257894976448414    0.0007004238558633   -0.0017171817266011
    -0.0046721719567373    4.0234365801602223    0.0015298837706881
     0.0001706879913477    0.0006980526701392    6.7726100703385050
   Ba   Bi   F 
     1     1     5
Direct
  0.5895251505655471  0.8057678398283999  0.7396788751388751
  0.0893636710222605  0.3052859036601412  0.2401466015721497
  0.0894273380583911  0.3057611368495120  0.7391136063681576
  0.5896205831577803  0.3056547756546530  0.4335069829502523
  0.0890661156898958  0.8053212593619957  0.0465930307314046
  0.0894966393239697  0.8056001395090798  0.4337144573971709
  0.5889627883564527  0.3048836743880798  0.0464774711205583
 
  0.00000000E+00  0.00000000E+00  0.00000000E+00
  0.00000000E+00  0.00000000E+00  0.00000000E+00
  0.00000000E+00  0.00000000E+00  0.00000000E+00
  0.00000000E+00  0.00000000E+00  0.00000000E+00
  0.00000000E+00  0.00000000E+00  0.00000000E+00
  0.00000000E+00  0.00000000E+00  0.00000000E+00
  0.00000000E+00  0.00000000E+00  0.00000000E+00
