Cs F  Li Nd
 1.0000000000000000
     5.7083219017390068    0.0000000000000000    0.0000000000000000
     2.7623213320231366    7.2252947782727777    0.0000000000000000
     2.4167807676687993    3.0270615836320705    6.3827204276426253
 Cs  F   Li  Nd 
   2   7   2   1
Cartesian
  4.6740382666261864  8.5358782161935487  4.8739411370249091
  5.2388985178942207  2.1036359819697208  0.8970156642623158
  6.6234771651569391  4.1836666353985557  4.6189814266824012
  3.4048157502980856  5.8099044525231314  4.5820433867548527
  2.0580505307892971  2.7644761563173357  2.2340226832108332
  6.0060677894512029  6.4346108342193320  3.2117213510497677
  3.2803974802394631  6.4496879165023273  1.3759279110291807
  6.4282368420685989  5.0470210717537975  0.9035550437058867
  4.3488522312857265  4.2637508766067951  2.6350908631776688
  5.0362157424012857  5.0265306348451535  4.1779969339406158
  4.9939441613483515  5.8260459167752714  1.6950700004258639
  7.8318803208384047  4.9477505591234632  2.7644129980019274
