H1 Se2 F9
1.0
   5.1900467872619629    0.0000000000000000    1.0528874397277825
   0.6113757054752428    6.8022988209171809    1.4185601472854614
   0.0000000000000000    0.0000000000000000    6.1607346534729004
H Se F
1 2 9
direct
   0.8167399764060974    0.8510930538177490    0.2390423566102981 H
   0.6765465140342712    0.0526652075350285    0.6549125313758848 Se
   0.3786078393459320    0.6715153455734253    0.0837498977780342 Se
   0.9419000148773193    0.8371432423591614    0.3442638218402862 F
   0.9235210418701172    0.2281209826469421    0.5928910970687866 F
   0.4469447135925293    0.2114499509334564    0.7896968722343444 F
   0.6387618184089661    0.8692319393157959    0.0860041007399559 F
   0.3978673815727234    0.5596731901168823    0.3623911440372466 F
   0.6422979831695557    0.5232917666435242    0.9687280654907225 F
   0.1664700508117676    0.5005580186843872    0.0606480054557323 F
   0.4213405549526215    0.8627518415451050    0.7073262929916381 F
   0.5704876780509949    0.1534032821655273    0.3992887735366821 F
