Rb3 Li1 Zn2 F8
1.0
   5.9188165664672852    0.0000000000000000    0.1348526626825318
   2.8482078373367861    5.0539261170423595   -0.0062416065484277
   0.0000000000000000    0.0000000000000000    7.1603732109069824
Rb Li Zn F
3 1 2 8
direct
   0.8319082856178285    0.6081063747406006    0.8093708753585814 Rb
   0.1677269637584686    0.9406226873397827    0.4918482601642608 Rb
   0.4992954134941102    0.2736600637435913    0.1507325917482376 Rb
   0.4993716478347779    0.2742842137813568    0.6505059599876404 Li
   0.1362827420234680    0.9555650353431702    0.9681829810142516 Zn
   0.8631249666213990    0.5928506851196289    0.3337706923484802 Zn
   0.9993368387222291    0.2743849754333496    0.1508155167102814 F
   0.9990254044532777    0.7741019725799561    0.1504071205854416 F
   0.8255999088287355    0.1102050319314003    0.8190671801567077 F
   0.6687706112861633    0.4481518566608429    0.4735741019248962 F
   0.6666666666666666    0.9315879940986634    0.4719399213790893 F
   0.1736174225807189    0.4386809468269349    0.4824304282665252 F
   0.3317388594150543    0.6168251633644105    0.8289804458618163 F
   0.3310280442237855    0.1003112643957138    0.8286396861076354 F
