Ba4 Pr1 Nd1 F14
1.0
   3.9873902797698979    0.0000000000000000   -0.0037334484513848
  -0.0167045445037521    6.4046265196292662   -1.4367079734802239
   0.0000000000000000    0.0000000000000000   14.3634271621704102
Ba Pr Nd F
4 1 1 14
direct
   0.2499732822179794    0.9130389094352722    0.3284338116645813 Ba
   0.2526281774044037    0.1952782869338990    0.8939780592918397 Ba
   0.7516220211982727    0.7703722119331360    0.0282709207385778 Ba
   0.7498939037322998    0.0486389994621277    0.5957391858100891 Ba
   0.7511655688285828    0.3475668430328370    0.1798589229583741 Pr
   0.2499236017465591    0.6173467636108398    0.7436044812202455 Nd
   0.2500483393669128    0.2478259950876236    0.7205219268798829 F
   0.2500401139259338    0.7988684177398682    0.6262550950050354 F
   0.2517947554588318    0.4828378260135651    0.0690372884273529 F
   0.7507439851760864    0.7187565565109254    0.2029872834682465 F
   0.7497724890708923    0.8828619122505188    0.7804720997810365 F
   0.2509669959545135    0.0785156041383743    0.1425082683563232 F
   0.7512077093124390    0.4847130179405213    0.8533076643943788 F
   0.7500548958778381    0.1650693118572235    0.2987397015094757 F
   0.7492157220840454    0.4876693189144135    0.6577702164649963 F
   0.2488790899515152    0.1494672000408173    0.5000789761543274 F
   0.7501903772354126    0.8130685687065126    0.4230519235134125 F
   0.2507269978523254    0.8000034689903259    0.9115477204322816 F
   0.7515651583671570    0.1649736166000366    0.0104621574282646 F
   0.2503820657730103    0.4764827191829681    0.2663476169109344 F
