Na3 Ti2 F11                             
   1.00000000000000     
     5.1148479642801918    0.0075649810586896    1.0868238730248276
    -2.9582125169055029    5.8707388370438309   -1.5972480511021021
     0.0792744274026761   -0.0658090919993929    7.9334538790094893
   Na   Ti   F 
     3     2    11
Direct
  0.8251885398129528  0.3650515774331652  0.8398614940906883
  0.4530653502611491  0.1173869864055064  0.4494477530284449
  0.1977945082174762  0.6134564775267888  0.2301595254206724
  0.6506218473420873  0.7234885101375167  0.6128181882622364
 -0.0012342318742505  0.0061923758103925  0.0666191128446987
  0.3633728585807349  0.1030828650129295  0.9391983299412522
  0.8232407808495049  0.8649223755294283  0.8402616141512910
  0.2851751042447584  0.6259304131817337  0.7389385244966692
  0.4925119875720458  0.5959031973507393  0.4047825575084678
  0.9502648949811324  0.7147217136781960  0.0730561497290734
  0.6492167344949189  0.4469317618235132  0.6346327912416450
  0.6136986213835870  0.9348764880452786  0.1873444296042191
  0.0360304087080605  0.7952232145146398  0.4924274954317874
  0.1559267136898657  0.1335537106534422  0.2748253425078492
  0.7006705748334585  0.0155371532837864  0.6067686985213807
  0.0028514932468432  0.2840655889189928  0.0457185136122810
 
  0.00000000E+00  0.00000000E+00  0.00000000E+00
  0.00000000E+00  0.00000000E+00  0.00000000E+00
  0.00000000E+00  0.00000000E+00  0.00000000E+00
  0.00000000E+00  0.00000000E+00  0.00000000E+00
  0.00000000E+00  0.00000000E+00  0.00000000E+00
  0.00000000E+00  0.00000000E+00  0.00000000E+00
  0.00000000E+00  0.00000000E+00  0.00000000E+00
  0.00000000E+00  0.00000000E+00  0.00000000E+00
  0.00000000E+00  0.00000000E+00  0.00000000E+00
  0.00000000E+00  0.00000000E+00  0.00000000E+00
  0.00000000E+00  0.00000000E+00  0.00000000E+00
  0.00000000E+00  0.00000000E+00  0.00000000E+00
  0.00000000E+00  0.00000000E+00  0.00000000E+00
  0.00000000E+00  0.00000000E+00  0.00000000E+00
  0.00000000E+00  0.00000000E+00  0.00000000E+00
  0.00000000E+00  0.00000000E+00  0.00000000E+00
