Li4 Fe2 F8
1.0
   4.9050502777099618    0.0000000000000000   -1.3429635763168328
  -1.7701062273191039    4.5729502569075073   -1.3278559446334834
   0.0000000000000000    0.0000000000000000    7.0100340843200684
Li Fe F
4 2 8
direct
   0.3061647713184357    0.5213872194290161    0.0708603262901306 Li
   0.5169298052787781    0.7356399893760682    0.4905517995357513 Li
   0.7973669171333313    0.0134931039065123    0.0561781041324138 Li
   0.6703345179557800    0.3896484673023224    0.7984945774078369 Li
   0.1641790866851807    0.8832677006721498    0.7872624397277832 Fe
   0.0218574553728104    0.2405733317136765    0.5026457905769348 Fe
   0.4076821208000183    0.6195937991142273    0.7687958478927612 F
   0.9051827192306519    0.1315034925937653    0.7680447101593018 F
   0.0173305831849575    0.7383733391761780    0.0003471346572042 F
   0.7980844378471375    0.5172544121742250    0.5553019046783447 F
   0.2971972227096558    0.0165686681866646    0.5529351830482483 F
   0.6571752429008484    0.8766385316848755    0.2770502269268036 F
   0.5233824849128723    0.2399912476539612    0.9983624219894409 F
   0.1587877422571182    0.3778057098388672    0.2761911749839783 F
