Cs3 Rb2 F5
1.0
   7.3332052230834961    0.0000000000000000    1.1441751718521123
  -2.0831717036715394    5.1088073425904765   -2.4614028930664062
   0.0000000000000000    0.0000000000000000    7.3843860626220703
Cs Rb F
3 2 5
direct
   0.9110367894172668    0.4449667632579803    0.9394253492355346 Cs
   0.3129179775714874    0.0489336736500263    0.7428663969039916 Cs
   0.1109180524945259    0.2484077960252762    0.3412603437900543 Cs
   0.5101454257965088    0.8463936448097229    0.1393743604421615 Rb
   0.7113246321678162    0.6485416293144226    0.5402212738990784 Rb
   0.3185333609580994    0.5541394948959351    0.7443195581436156 F
   0.7101668119430542    0.1436107903718948    0.5335506200790405 F
   0.9048774838447571    0.9396294951438905    0.9380839467048644 F
   0.5150327682495117    0.3528226613998413    0.1479983627796173 F
   0.1123421564698219    0.7473474144935608    0.3413698971271514 F
