Na1 Zn2 Ni1 F8                          
   1.00000000000000     
     5.3142486710382322    0.0200448911804051   -0.1340062985769222
    -0.0080229490473517    5.6003297471987583   -0.0047262527941932
    -0.1836511816630942    0.0136041146210132    4.9014760163434881
   Na   Zn   Ni   F 
     1     2     1     8
Direct
  0.9925141020689489  0.4288934297367388 -0.0016878515001903
  0.4932253922489631  0.0969354008276155 -0.0018963469900880
  0.9914289872989251  0.9115474795821488  0.4999050775685270
  0.4925918179912666  0.6025823985422097  0.4979061212211619
  0.7879345725091231  0.6247090080065887  0.3202814114496103
  0.6559671854366516  0.8514853478833533  0.7333643501711875
  0.3318557407821101  0.8473687718340397  0.2641640327808522
  0.1987684803690402  0.6246272393755696  0.6779346438335861
  0.6282060041192056  0.3639405683060049  0.7415521512250566
  0.8229891320565470  0.1086855548467886  0.2157646687335643
  0.1639457012527302  0.1097107325015923  0.7785020665871986
  0.3579456768257015  0.3607798399463571  0.2515376028665784
 
  0.00000000E+00  0.00000000E+00  0.00000000E+00
  0.00000000E+00  0.00000000E+00  0.00000000E+00
  0.00000000E+00  0.00000000E+00  0.00000000E+00
  0.00000000E+00  0.00000000E+00  0.00000000E+00
  0.00000000E+00  0.00000000E+00  0.00000000E+00
  0.00000000E+00  0.00000000E+00  0.00000000E+00
  0.00000000E+00  0.00000000E+00  0.00000000E+00
  0.00000000E+00  0.00000000E+00  0.00000000E+00
  0.00000000E+00  0.00000000E+00  0.00000000E+00
  0.00000000E+00  0.00000000E+00  0.00000000E+00
  0.00000000E+00  0.00000000E+00  0.00000000E+00
  0.00000000E+00  0.00000000E+00  0.00000000E+00
