Na1 H1 F2                               
   1.00000000000000     
     3.0051696593400106   -0.0002967861782394   -0.0173424769495438
     0.0030300865818641    3.0050032005294618   -0.0052835042338862
     0.0005704835284174    0.0012812325821378    4.8292645084473156
   Na   H    F 
     1     1     2
Direct
  0.4339333360078505  0.6999417207744958  0.5638640362047613
  0.9357084683134418  0.1999845311351983  0.0636913845095103
  0.9331493105808921  0.1995728186584322  0.3012159160530385
  0.9360832907202977  0.2006773114966930  0.8258753966358957
 
  0.00000000E+00  0.00000000E+00  0.00000000E+00
  0.00000000E+00  0.00000000E+00  0.00000000E+00
  0.00000000E+00  0.00000000E+00  0.00000000E+00
  0.00000000E+00  0.00000000E+00  0.00000000E+00
