Na1 Ca2 Y1 F8                           
   1.00000000000000     
     5.5075518999555904   -0.0033027458748134    0.0010080567552292
     0.0037426964528814    5.4561233087564842    0.0001457264718381
    -0.0001582961434569    0.0012610089403985    5.5008438183315738
   Na   Ca   Y    F 
     1     2     1     8
Direct
  0.7524543723211069  0.2821796289054808  0.4867951434936248
  0.2522411243199113  0.7822648991445470  0.4872034896470527
  0.7521925363891719  0.7823586260835049  0.9870650007505728
  0.2523173744754435  0.2823857080609595  0.9870792371974015
  0.4920651064403072  0.0341263062521846  0.7477251252737723
  0.4921164570782728  0.5300528303572816  0.2269328613796237
  0.0130536088858506  0.0337566724963826  0.7473653077380019
  0.4914431935361921  0.5303426558306072  0.7476660375815473
  0.0126928834702721  0.0348007359628826  0.2264878524252308
  0.0124523537152516  0.5300179312604817  0.7467312428422139
  0.0128437660460843  0.5312264407677684  0.2259088340620500
  0.4912796480003420  0.0341205979747096  0.2273797002724438
 
  0.00000000E+00  0.00000000E+00  0.00000000E+00
  0.00000000E+00  0.00000000E+00  0.00000000E+00
  0.00000000E+00  0.00000000E+00  0.00000000E+00
  0.00000000E+00  0.00000000E+00  0.00000000E+00
  0.00000000E+00  0.00000000E+00  0.00000000E+00
  0.00000000E+00  0.00000000E+00  0.00000000E+00
  0.00000000E+00  0.00000000E+00  0.00000000E+00
  0.00000000E+00  0.00000000E+00  0.00000000E+00
  0.00000000E+00  0.00000000E+00  0.00000000E+00
  0.00000000E+00  0.00000000E+00  0.00000000E+00
  0.00000000E+00  0.00000000E+00  0.00000000E+00
  0.00000000E+00  0.00000000E+00  0.00000000E+00
