Ca1 Ti1 F6                              
   1.00000000000000     
     4.5974585910266077   -0.0049489126214766    2.6398113823250990
     0.0024167801559752    5.0102971539576169   -0.0001972082807233
     0.0174889953979937   -0.0024633246747825    5.3036809961488780
   Ca   Ti   F 
     1     1     6
Direct
  0.5930369667740751  0.8421052141353805  0.9622864946766886
  0.9259573120506210  0.3424425607316066  0.2955233900284197
  0.2234646608364267  0.5653470638222148  0.2766082960991899
  0.6469676010742292  0.1205964868742479  0.2761245029242584
  0.9055219306707051  0.1213024298629205  0.5946016645252419
  0.2248024046919888  0.1202936544561597  0.0175299855840153
  0.6474704999569360  0.5640427844720102  0.5943435828556484
  0.9057855966155735  0.5641878357644022  0.0175663354703051
 
  0.00000000E+00  0.00000000E+00  0.00000000E+00
  0.00000000E+00  0.00000000E+00  0.00000000E+00
  0.00000000E+00  0.00000000E+00  0.00000000E+00
  0.00000000E+00  0.00000000E+00  0.00000000E+00
  0.00000000E+00  0.00000000E+00  0.00000000E+00
  0.00000000E+00  0.00000000E+00  0.00000000E+00
  0.00000000E+00  0.00000000E+00  0.00000000E+00
  0.00000000E+00  0.00000000E+00  0.00000000E+00
