Mo1 F6
1.0
   4.6428761482238770    0.0000000000000000   -1.7379031181335443
  -2.3442784802392826    4.2659591813120432    0.8761037588119509
   0.0000000000000000    0.0000000000000000    4.8887858390808105
Mo F
1 6
direct
   0.3337787389755249    0.9916492700576782    0.3048327267169952 Mo
   0.4093683063983917    0.6855834722518921    0.5363352298736572 F
   0.1051835715770722    0.9911558628082277    0.5325968861579895 F
   0.7155443429946899    0.2968967556953430    0.5364152193069458 F
   0.5632753968238832    0.9926298260688783    0.0770365446805954 F
   0.2587740123271942    0.2982450425624847    0.0739054530858994 F
   0.9528938531875610    0.6868222951889038    0.0729195550084114 F
