Y1 Tl3 F6
1.0
   5.9713916778564453    0.0000000000000000   -3.3856723308563228
  -1.9269605344479710    5.6434742909121578   -3.3855803012847896
   0.0000000000000000    0.0000000000000000    6.8830080032348633
Y Tl F
1 3 6
direct
   0.5627425312995911    0.4917337894439697    0.2776633799076081 Y
   0.0630137026309967    0.9920614957809448    0.2780209183692933 Tl
   0.8128978013992310    0.2414768785238266    0.7781096696853638 Tl
   0.3130744397640228    0.7420468926429749    0.7774035930633545 Tl
   0.7890637516975403    0.2655492722988129    0.2769926190376282 F
   0.3367229402065277    0.7176877260208130    0.2781786024570466 F
   0.7893695831298828    0.7190063595771790    0.7303872108459473 F
   0.7888210415840149    0.7172807455062866    0.2773632407188417 F
   0.3368976414203644    0.2651953399181366    0.2774513959884644 F
   0.3371576666831970    0.2652820348739624    0.8246427178382874 F
