Cs1 B1 F4
1.0
   4.6973118782043466    0.0000000000000000   -1.5244690179824818
   1.0922967565947779    4.5453743613240301   -1.5484397411346436
   0.0000000000000000    0.0000000000000000    4.9224953651428223
Cs B F
1 1 4
direct
   0.1621959954500198    0.7143515348434448    0.3661369979381562 Cs
   0.7446917295455933    0.2974818348884582    0.7822089791297913 B
   0.8741063475608826    0.4264887273311615    0.6536487936973572 F
   0.5723521709442139    0.1241185143589973    0.5590156316757202 F
   0.5723502039909363    0.5216567516326904    0.9553442001342773 F
   0.9698837995529175    0.1246082261204720    0.9558140039443970 F
