Ta1 F5
1.0
   3.6966023445129390    0.0000000000000000   -1.6441025733947752
   1.8688526840704889    4.4714692950937494   -0.8068953156471255
   0.0000000000000000    0.0000000000000000    4.9191517829895020
Ta F
1 5
direct
   0.6339601874351501    0.9904724359512328    0.2642978429794310 Ta
   0.5434895753860474    0.8025000095367432    0.8946520686149597 F
   0.9119269847869872    0.6209382414817810    0.4515295922756194 F
   0.1334195137023926    0.9898894429206847    0.2640557289123535 F
   0.3550761640071869    0.3593161106109619    0.0752829983830452 F
   0.7237528562545776    0.1781650930643082    0.6334333419799805 F
