Na1 H3 F4
1.0
   3.4138677120208740    0.0000000000000000   -0.0429974384605886
  -3.3668975261478251    5.0883783096196762   -2.4325821399688712
   0.0000000000000000    0.0000000000000000    4.9763622283935547
Na H F
1 3 4
direct
   0.5952949523925781    0.5080361366271973    0.5186015367507935 Na
   0.0942317321896553    0.0078956354409456    0.5250152945518494 H
   0.0953143090009691    0.5072959065437318    0.0174659267067909 H
   0.0948579683899879    0.0067964084446430    0.0265520941466093 H
   0.0908047631382943    0.5067840218544007    0.2387667298316956 F
   0.1290593892335892    0.0418862700462341    0.2870484590530396 F
   0.0991948917508125    0.5080824494361877    0.7976937890052795 F
   0.0613084323704244    0.9739395976066590    0.7534030675888062 F
