Ti2 F8                                  
   1.00000000000000     
     4.7472780407912589    0.0075218952945983   -0.0189044124796416
    -0.0061613572410943    4.7475666936255942   -0.0132515858652275
     0.0162847098613724    0.0138654843265074    5.9730685748402284
   Ti   F 
     2     8
Direct
  0.0686330009758622  0.8861509239674489  0.1136812971360090
  0.5677251433258771  0.3861946890460649  0.7959499844047669
  0.7659573722832154  0.1892409221566475  0.6035780157811138
  0.8452180456252485  0.6640896865123993  0.8605463297787670
  0.2905008259567671  0.1072349751167213  0.8600379815608532
  0.7908737474805854  0.1640825172003324  0.0499726098548960
  0.8714839435523756  0.6886954827745293  0.3060046743472266
  0.3704041167561046  0.5840470678597004  0.6033929041127595
  0.2674518087219478  0.0819867178790089  0.3066613924864552
  0.3461844646303926  0.6070892378817593  0.0499888261640600
 
  0.00000000E+00  0.00000000E+00  0.00000000E+00
  0.00000000E+00  0.00000000E+00  0.00000000E+00
  0.00000000E+00  0.00000000E+00  0.00000000E+00
  0.00000000E+00  0.00000000E+00  0.00000000E+00
  0.00000000E+00  0.00000000E+00  0.00000000E+00
  0.00000000E+00  0.00000000E+00  0.00000000E+00
  0.00000000E+00  0.00000000E+00  0.00000000E+00
  0.00000000E+00  0.00000000E+00  0.00000000E+00
  0.00000000E+00  0.00000000E+00  0.00000000E+00
  0.00000000E+00  0.00000000E+00  0.00000000E+00
