Cs3 Rb2 F5                              
   1.00000000000000     
     7.2349404609007122   -0.0127095836650736    1.1951571796783598
    -2.0831738557929431    5.0628088515383967   -2.4494732089101579
     0.0619356691818608    0.0103359353662071    7.3177383624700303
   Cs   Rb   F 
     3     2     5
Direct
  0.9083790231633723  0.4452660157927931  0.9400758578635103
  0.3139947233696919  0.0498203403265788  0.7418288439026018
  0.1115863521451754  0.2472039261581309  0.3407036916266918
  0.5132001994715512  0.8493012865646189  0.1425913308427729
  0.7096066160356850  0.6459757050654309  0.5392732558098096
  0.3319916690620658  0.5617925073927722  0.7491315544881126
  0.7050188878135184  0.1363482959662002  0.5260534344232678
  0.8916218698629974  0.9323575881840990  0.9328131966060300
  0.5189396096550566  0.3582624436614162  0.1554418128111527
  0.1129565083337355  0.7484652542505106  0.3405571307311608
 
  0.00000000E+00  0.00000000E+00  0.00000000E+00
  0.00000000E+00  0.00000000E+00  0.00000000E+00
  0.00000000E+00  0.00000000E+00  0.00000000E+00
  0.00000000E+00  0.00000000E+00  0.00000000E+00
  0.00000000E+00  0.00000000E+00  0.00000000E+00
  0.00000000E+00  0.00000000E+00  0.00000000E+00
  0.00000000E+00  0.00000000E+00  0.00000000E+00
  0.00000000E+00  0.00000000E+00  0.00000000E+00
  0.00000000E+00  0.00000000E+00  0.00000000E+00
  0.00000000E+00  0.00000000E+00  0.00000000E+00
