Na2 Nd3 F11
1.0
   5.1592955589294434    0.0000000000000000    2.3392038345336919
   2.5154088153686018    6.2385450990081992    1.3135304450988772
   0.0000000000000000    0.0000000000000000    6.8831224441528320
Na Nd F
2 3 11
direct
   0.6683024168014526    0.2407348453998566    0.5075695514678955 Na
   0.0751720517873764    0.0242632180452347    0.9089055657386781 Na
   0.2902119755744934    0.4291665554046631    0.0744604468345642 Nd
   0.4545777738094330    0.8358873724937439    0.3419354557991028 Nd
   0.8709542155265808    0.6321191191673279    0.7087807059288026 Nd
   0.8503861427307129    0.5370233058929443    0.3904678225517274 F
   0.4412264227867126    0.7249496579170227    0.0270534530282021 F
   0.6054274439811707    0.1327966004610062    0.2077384293079376 F
   0.5442683100700380    0.9394108057022094    0.5997917652130127 F
   0.1969547420740128    0.3262229859828949    0.8188458085060121 F
   0.3038396835327148    0.5360195040702820    0.3913449645042420 F
   0.8936860561370852    0.7287342548370360    0.0263195428997278 F
   0.0041478471830488    0.9379619359970092    0.5960059762001038 F
   0.1404406875371933    0.1314307898283005    0.2077849209308625 F
   0.7389357089996338    0.3249144852161407    0.8171204924583436 F
   0.3739210665225983    0.6330239772796631    0.7086033821105958 F
