Ba2 F4
1.0
   4.0527906417846680    0.0000000000000000   -0.0074292793869968
  -0.0003308684703990    4.0495161875023706    0.0042059379629789
   0.0000000000000000    0.0000000000000000    6.7548375129699707
Ba F
2 4
direct
   0.5096535682678223    0.5758721828460693    0.3413097262382507 Ba
   0.0082359537482262    0.0764280632138252    0.8284049630165100 Ba
   0.0089807473123074    0.0757797360420227    0.2216094583272934 F
   0.0093291811645031    0.5760011672973633    0.5850872993469238 F
   0.5092937350273132    0.0751680806279182    0.5849532485008240 F
   0.5095728039741516    0.5760795474052429    0.9483040571212769 F
