K3 Te1 F7
1.0
   5.6852173805236825    0.0000000000000000    3.1837608814239498
   1.9270695106700089    5.4171171198022181    3.1380281448364258
   0.0000000000000000    0.0000000000000000    6.5372338294982910
K Te F
3 1 7
direct
   0.2135922908782959    0.9243435263633728    0.3839016258716583 K
   0.6936334371566772    0.4481605887413025    0.9068837165832520 K
   0.9920011162757874    0.6635599136352539    0.1256318539381027 K
   0.4713036417961121    0.1583447456359863    0.6187347173690796 Te
   0.3268778622150421    0.8868524432182313    0.9574592113494874 F
   0.7913081049919128    0.2961091697216034    0.3356817066669464 F
   0.7929172515869141    0.8724181056022644    0.7552485466003418 F
   0.3508160710334778    0.3837714493274689    0.8460825681686401 F
   0.3273248076438904    0.4987864196300507    0.3462599217891693 F
   0.1056337505578995    0.1935538053512573    0.6504451036453247 F
   0.6163971424102782    0.9326620697975160    0.3899717032909393 F
