Li2 Ge1 F6
1.0
   4.4810991287231436    0.0000000000000000   -0.4029279649257661
   0.3206984866247622    5.1748160928271396   -0.5647422671318050
   0.0000000000000000    0.0000000000000000    5.2267622947692871
Li Ge F
2 1 6
direct
   0.1742091625928879    0.2162402272224426    0.7581597566604614 Li
   0.1727525889873505    0.7161093354225159    0.2589007914066315 Li
   0.6738460063934326    0.2171119600534439    0.2585739493370056 Ge
   0.4657060503959656    0.2983456552028656    0.5398232936859131 F
   0.9534469842910767    0.0229223594069481    0.4453341662883759 F
   0.4592294394969940    0.9354574680328369    0.1644951254129410 F
   0.8880301117897034    0.4965166151523590    0.3521726727485657 F
   0.3946217894554138    0.4091812372207641    0.0705973953008652 F
   0.8836164474487305    0.1346671730279922    0.9769636988639832 F
