Li3 Mn2 F7
1.0
   5.8989391326904297    0.0000000000000000    2.0410370826721196
   1.3992413763322278    4.3807342209607381    2.3626613616943364
   0.0000000000000000    0.0000000000000000    5.4325027465820312
Li Mn F
3 2 7
direct
   0.4190082848072052    0.7590939402580261    0.8358319401741028 Li
   0.2084189951419830    0.0150965340435505    0.3280073702335358 Li
   0.0428008511662483    0.4450775384902954    0.6819217205047607 Li
   0.6229340434074402    0.3499090969562531    0.4922957122325897 Mn
   0.8100183010101318    0.9207872152328491    0.1543401479721069 Mn
   0.2940520346164704    0.5990601778030396    0.6513229608535767 F
   0.5718280673027037    0.7506902217864990    0.1130747944116593 F
   0.1331940591335297    0.0340303815901279    0.9759758114814758 F
   0.9796577095985413    0.4400216639041901    0.3386783003807068 F
   0.6969068050384521    0.3569813370704651    0.8446028232574463 F
   0.8836496472358704    0.9120078086853027    0.5175141096115112 F
   0.4571335613727570    0.0960725992918015    0.4325430393218994 F
