Rb3 Tb1 F7
1.0
   5.8735265731811523    0.0000000000000000   -3.1949362754821768
  -1.5318705147598162    5.6275911659457742   -3.2612924575805660
   0.0000000000000000    0.0000000000000000    7.1551909446716309
Rb Tb F
3 1 7
direct
   0.3029241263866425    0.5324503779411316    0.9375043511390685 Rb
   0.0572154894471168    0.7812593579292297    0.4395224750041962 Rb
   0.8024355769157410    0.0322131775319576    0.9368003010749816 Rb
   0.5415224432945251    0.2697852551937103    0.4132802188396453 Tb
   0.3105108141899109    0.0623449981212616    0.9802205562591552 F
   0.6858876347541809    0.9678898453712464    0.2519885897636415 F
   0.7701767683029175    0.5006150007247925    0.4199295938014985 F
   0.2353707104921341    0.4041225910186768    0.2385985702276230 F
   0.3171003758907318    0.0473109818994999    0.4192422926425933 F
   0.5373470187187195    0.5824154019355774    0.7228645086288452 F
   0.8456340432167053    0.2917315661907196    0.7398405671119690 F
