Li5 S1 O3 F3                            
   1.00000000000000     
     5.1947751900425576    0.0102624078738697    0.4265780222908178
    -2.2167057990981887    4.2649171549441753   -1.6503826134388364
    -0.1585384387875532    0.0380636524827410    5.2611864771254631
   Li   S    O    F 
     5     1     3     3
Direct
  0.3504241404582543  0.0393955657379213  0.5759886926100866
  0.9643805497884164  0.7771240176119001  0.0688742856304856
  0.9894773957406650  0.3681289018156823  0.5820732755824971
  0.2705790087762514  0.4497376089292148  0.0669197124223352
  0.7327353814909705  0.7067451517390140  0.5452087270884518
  0.5737573124902130  0.0691514118917860  0.0860135422056029
  0.6567001471850874  0.9284728488107363  0.2778081611439774
  0.3853986352907564  0.2147702469370817  0.2521834831458217
  0.3465070282423065  0.7797642827381722  0.8656455150472629
  0.0508977808495372  0.6219214186714600  0.3416795116686218
  0.0541536258666754  0.1167184099102251  0.7458398127653530
  0.7086979692849714  0.4673433068924429  0.7626353799062038
 
  0.00000000E+00  0.00000000E+00  0.00000000E+00
  0.00000000E+00  0.00000000E+00  0.00000000E+00
  0.00000000E+00  0.00000000E+00  0.00000000E+00
  0.00000000E+00  0.00000000E+00  0.00000000E+00
  0.00000000E+00  0.00000000E+00  0.00000000E+00
  0.00000000E+00  0.00000000E+00  0.00000000E+00
  0.00000000E+00  0.00000000E+00  0.00000000E+00
  0.00000000E+00  0.00000000E+00  0.00000000E+00
  0.00000000E+00  0.00000000E+00  0.00000000E+00
  0.00000000E+00  0.00000000E+00  0.00000000E+00
  0.00000000E+00  0.00000000E+00  0.00000000E+00
  0.00000000E+00  0.00000000E+00  0.00000000E+00
