K2 As1 S1 O4 F3
1.0
   4.9453310966491699    0.0000000000000000    1.7575896978378305
  -0.7011431498984286    5.0658769672806621    1.8218376636505131
   0.0000000000000000    0.0000000000000000    7.6003994941711426
K As S O F
2 1 1 4 3
direct
   0.8288834691047670    0.7189463376998901    0.8191533088684082 K
   0.5599047541618348    0.9400411248207093    0.3753910362720490 K
   0.1307844221591950    0.4980673193931580    0.2495754510164261 As
   0.2755180597305298    0.1923012137413025    0.8751576542854309 S
   0.9736807942390443    0.1499251872301102    0.9581391811370850 O
   0.3809501528739929    0.4764321148395539    0.7445451021194458 O
   0.3679622411727905    0.1120931729674339    0.0527255050837994 O
   0.3802443444728851    0.0252112708985806    0.7511336207389832 O
   0.0164835397154093    0.6493186354637146    0.4423761963844299 F
   0.4914376437664033    0.5043836832046509    0.2481265217065811 F
   0.0133232073858380    0.1671001017093658    0.4449891746044159 F
