Ba1 Sr1 I1 F3                           
   1.00000000000000     
     4.4292044895060894    0.0104789558199176   -0.0085989814451219
    -2.2316357829328997    3.8330328229180428   -0.0129616339507473
     0.0154116945135381    0.0284053489434819    8.0737468311726968
   Ba   Sr   I    F 
     1     1     1     3
Direct
  0.5286646383130894  0.2796128905631283  0.4981757770801215
  0.8608052171824132  0.9461832525452567  0.1411128803102665
  0.1961738338580266  0.6155573813286914  0.8256917413559198
  0.5275378326308071  0.2791006776233059  0.1613795286167307
  0.8615807969678592  0.9457261007595350  0.4513648208596256
  0.1932583466934040  0.6114130773928668  0.3087703651501389
 
  0.00000000E+00  0.00000000E+00  0.00000000E+00
  0.00000000E+00  0.00000000E+00  0.00000000E+00
  0.00000000E+00  0.00000000E+00  0.00000000E+00
  0.00000000E+00  0.00000000E+00  0.00000000E+00
  0.00000000E+00  0.00000000E+00  0.00000000E+00
  0.00000000E+00  0.00000000E+00  0.00000000E+00
