Al F  K  Na
 1.0000000000000000
     5.7877373480569139    0.0000000000000000    0.0000000000000000
     1.3358083130563971    6.1167109212093740    0.0000000000000000
     0.8396847450275099    1.0933778424375886    5.9278697152822275
 Al  F   K   Na 
   1   7   2   2
Cartesian
  2.0229397804440965  0.7049569996496503  1.6628880857499462
  3.6028210033283998  1.2075777520743460  2.5113706038589885
  2.6538203775375542  6.1950839757214951  3.2606775026967694
  1.8435553459262601  6.2213105117580119  0.7990524696793158
  5.3819072497904763  4.7139367174574920  4.2903013314263250
  4.1307797274916673  5.1195299510863279  1.3678805489628094
  2.6945190278763507  1.2201790026091666  0.0139981712329418
  1.3597423435129028  2.3864350276141497  1.9517154642106105
  3.1887634761694539  3.5823424648481041  3.5476036201295051
  4.9733310399249149  2.4286582765808729  0.5114681894553190
  4.2435105442736587  6.4494143619121882  5.0310582088955274
  6.2622721074318024  5.4875869197479403  2.4626729172199400
