Ba2 Zn2 F8
1.0
   6.4665780067443848    0.0000000000000000   -2.0973978042602535
  -2.2191895957024594    4.9814066004792554   -0.0008486084989268
   0.0000000000000000    0.0000000000000000    6.0279445648193359
Ba Zn F
2 2 8
direct
   0.2502877414226532    0.7515680193901062    0.3401492536067963 Ba
   0.2523093819618225    0.3141691684722900    0.8414062261581421 Ba
   0.7507135868072511    0.0325121805071831    0.0909021720290184 Zn
   0.7512122988700868    0.5333592295646667    0.5907783508300781 Zn
   0.6063871383666992    0.7642957568168640    0.7517617344856262 F
   0.6087300181388855    0.6575812101364135    0.2517987489700317 F
   0.8942848443984986    0.4076359868049622    0.9296515583992004 F
   0.4508356750011445    0.2448826581239700    0.5437070727348328 F
   0.4508666992187501    0.0220290869474411    0.0467538610100746 F
   0.0528084784746170    0.8217065334320068    0.6386160254478455 F
   0.8960290551185609    0.3019457161426544    0.4301797449588776 F
   0.0515185333788395    0.0450862571597099    0.1362209916114807 F
