Rb4 Sm1 F7                              
   1.00000000000000     
     6.8750743002796773    0.0919057038027119    0.0086541473404509
    -3.2881703666919955    5.0832383048688357   -2.8033350713462490
    -0.0326575902432194   -0.0527351600614110    7.8796347209674051
   Rb   Sm   F 
     4     1     7
Direct
  0.3461351995518655  0.8888763120717332  0.9882778290066104
  0.9113349531343207  0.0578154776517327  0.6934719981041596
  0.4904704815404227  0.2913034232880594  0.5815462634935471
  0.0494279014431512  0.3874578140120699  0.2850893724171311
  0.7012796975242250  0.6389897099809844  0.1372803096049663
  0.0847311720463413  0.8738991425248780  0.2734963891364289
  0.2017631710418475  0.4798539210574117  0.6371462053093055
  0.7721062905125932  0.8109398838751978  0.9367112000491312
  0.6356896759007010  0.9494843170827750  0.3309953470543003
  0.7102761424439531  0.2914146937352375  0.9205367812672843
  0.6911324223279383  0.5123399120321784  0.3619103512194696
  0.3174233480718666  0.3560700290773547  0.0035182748641925
 
  0.00000000E+00  0.00000000E+00  0.00000000E+00
  0.00000000E+00  0.00000000E+00  0.00000000E+00
  0.00000000E+00  0.00000000E+00  0.00000000E+00
  0.00000000E+00  0.00000000E+00  0.00000000E+00
  0.00000000E+00  0.00000000E+00  0.00000000E+00
  0.00000000E+00  0.00000000E+00  0.00000000E+00
  0.00000000E+00  0.00000000E+00  0.00000000E+00
  0.00000000E+00  0.00000000E+00  0.00000000E+00
  0.00000000E+00  0.00000000E+00  0.00000000E+00
  0.00000000E+00  0.00000000E+00  0.00000000E+00
  0.00000000E+00  0.00000000E+00  0.00000000E+00
  0.00000000E+00  0.00000000E+00  0.00000000E+00
