K1 Gd1 F4                               
   1.00000000000000     
     3.2855741264943488    0.0091860439542245   -2.1250693588734384
    -0.0114735258707172    3.9140765382138780   -0.0085017865037816
     0.1139953258594403    0.0070853299134604    7.3870309154374949
   K    Gd   F 
     1     1     4
Direct
  0.1054614045439526  0.9660651842971100  0.4531166572374152
  0.1053346499081891  0.4659455929782103  0.9531193776174655
  0.8106463586307345  0.4656964341970574  0.1580004580190132
  0.3104437648225492  0.9662279687880203  0.1581265581127638
  0.3999230678413546  0.4660209956330875  0.7484447155371621
  0.9002155639713519  0.9654412249625328  0.7483988795609660
 
  0.00000000E+00  0.00000000E+00  0.00000000E+00
  0.00000000E+00  0.00000000E+00  0.00000000E+00
  0.00000000E+00  0.00000000E+00  0.00000000E+00
  0.00000000E+00  0.00000000E+00  0.00000000E+00
  0.00000000E+00  0.00000000E+00  0.00000000E+00
  0.00000000E+00  0.00000000E+00  0.00000000E+00
