Li2 Ni2 F6
1.0
   4.9714531898498526    0.0000000000000000   -1.6333549022674572
  -2.2943587504627780    4.2193199581739496   -1.9921499490737913
   0.0000000000000000    0.0000000000000000    5.2807931900024414
Li Ni F
2 2 6
direct
   0.0186063088476658    0.9855494499206542    0.2130607217550278 Li
   0.7919090986251831    0.5000888705253601    0.3404976427555084 Li
   0.3832723498344421    0.7212735414505005    0.7059655785560608 Ni
   0.1707955896854401    0.3553581237792969    0.9846867918968201 Ni
   0.4364951550960541    0.3978544771671295    0.3938857614994049 F
   0.0079955803230405    0.3180683255195618    0.5683899521827698 F
   0.1160991713404656    0.9083467125892639    0.8120974898338318 F
   0.1807058304548264    0.7345528006553650    0.3103947639465333 F
   0.5790826082229614    0.6417772173881531    0.0478778146207333 F
   0.7608222961425781    0.1350974440574646    0.9605396986007690 F
