F  K  Na Y 
 1.0000000000000000
     5.9128509443003949    0.0000000000000000    0.0000000000000000
     2.9254548349057599    5.5508713921195882    0.0000000000000000
     3.0016572729213289    0.8938792219887731    5.7932341174874082
 F   K   Na  Y  
   7   1   3   1
Cartesian
  6.9870373268437636  3.0692559734723104  2.8187930374312207
  4.4257763013090532  2.6186608032567769  0.0904765031992812
  4.5234635314119060  5.6133666389463031  1.3474215901702795
  8.7659164736458024  5.7934132093794091  3.4840569711815457
  7.7980757849530793  5.5061921649849630  0.4079627230985320
  4.0438452381828336  2.2707621905739233  2.7986091751472495
  1.3332937093925183  2.4331085937372041  0.0039302462771679
  5.8365207724571713  5.4476105700159767  3.5885134006597519
  2.8720837248135513  3.6997382616530703  1.2490183338812093
  5.9167360687470554  1.6880404198857699  5.3799266979875773
  8.7706141035280361  3.6144472351800254  4.1532261166935669
  5.8462891088671629  1.5837938556542741  1.6008215600524849
