F  H  Pb Rb
 1.0000000000000000
     6.1201302526217898    0.0000000000000000    0.0000000000000000
    -0.0649121779195163    6.4024404530130932    0.0000000000000000
    -3.4628456685007278   -3.0900372518129684    6.3651997191203771
 F   H   Pb  Rb 
   7   1   2   2
Cartesian
  0.3498143421427758  1.4691760379986643  0.5060094579239878
  3.9368751669116158  3.2783431266205296  0.8308257105714628
  4.0465671852026155 -0.0680586757719310  0.8194397680247021
  0.3228453869184037  4.5687669310171053  1.8938215294085892
  1.5374421824630298 -1.4073025286438066  5.0797418581063116
 -2.1205563993914245  0.2435177813539161  4.9046918242506123
 -2.1880812621752490  3.1575687824318730  4.8201545466346998
  2.2802386454488097 -1.5077569602917713  5.9599643843908128
 -0.7893882967039643 -1.4936691786747081  5.9982343846618580
  2.2836497907551578  1.6952855560209295  6.1908246298025755
  2.8719883944961779  4.8491927069447209  2.8078425009761352
 -0.8944002020883846  1.7344692611818442  2.8411475424528092
