Rb1 Sb1 F4                              
   1.00000000000000     
     4.4128366874788663   -0.0548150766086170   -0.4836789675447614
    -2.0584431825681202    4.2515628774343037    0.3743427011471827
    -0.2191714129659766    0.1117229616317593    6.3676157533335092
   Rb   Sb   F 
     1     1     4
Direct
  0.6614052406496954  0.7927298222530318  0.9535348362485238
  0.2327764805074310  0.2690823186621000  0.4622217615453552
  0.7590125793892023  0.9282807628967846  0.4573656561131178
  0.2979797266005572  0.1511184782892774  0.7864393131048864
  0.0444532585781574  0.4193555307801441  0.1722795096812784
  0.0969527775434993  0.5537103903375035  0.5810232805398853
 
  0.00000000E+00  0.00000000E+00  0.00000000E+00
  0.00000000E+00  0.00000000E+00  0.00000000E+00
  0.00000000E+00  0.00000000E+00  0.00000000E+00
  0.00000000E+00  0.00000000E+00  0.00000000E+00
  0.00000000E+00  0.00000000E+00  0.00000000E+00
  0.00000000E+00  0.00000000E+00  0.00000000E+00
