Na1 Al1 Pb1 F6
1.0
   4.7790746688842782    0.0000000000000000   -2.7619040012359606
  -0.0042362599202645    5.0433989853184711    0.0064520789310342
   0.0000000000000000    0.0000000000000000    5.5227036476135254
Na Al Pb F
1 1 1 6
direct
   0.8489794731140137    0.6507517099380493    0.7892525196075439 Na
   0.1827976703643799    0.6504055857658385    0.4557362496852875 Al
   0.5164497494697571    0.1511233448982239    0.1228957623243332 Pb
   0.9089751839637756    0.4426057934761047    0.1805918812751769 F
   0.1810773015022278    0.4435575902462005    0.7304185628890991 F
   0.4591036438941956    0.4439299404621124    0.4555332660675049 F
   0.9076473116874695    0.8574954867362976    0.4559742808341979 F
   0.1819187253713608    0.8580887317657470    0.1798980981111526 F
   0.4580079615116119    0.8581716418266296    0.7300528883934021 F
