Ca F  Sr
 1.0000000000000000
     6.9568718612948661    0.0000000000000000    0.0000000000000000
    -1.2441079287690149    6.7185605532957551    0.0000000000000000
    -3.5440657053221769   -1.7590791715408938    5.6155924104854611
 Ca  F   Sr 
   5  12   1
Cartesian
  1.7588742614051276  2.5810485760380488  5.4665466593872178
  3.9293400331913451  0.3474882232633733  0.9171527219469596
  1.4621606040225783  3.7229799488935389  1.6619260134701086
  0.5510412283598869 -0.0613490158818308  2.4066101870204495
 -2.6266772758269168 -0.8400115667279793  4.5677812763989811
 -0.2218682228774432 -1.1969269972501879  4.3189869916793784
 -3.2198273244635458  1.3506037378118276  5.1410111728657659
 -1.7204975917240157  0.5007575980103545  2.8685206061625661
  2.7517635194206469 -0.7064733469892542  2.8071242640956391
  6.2320419739177177 -0.0303364211413107  0.3384679896755240
 -0.7423453923513142  4.3439927407787415  2.0232954603030779
  0.5486366311667414  5.7122888259203659  0.2674076820854068
  3.0335492768561396  4.7694340558791328  0.3142348464159491
  2.8078216027504510  3.7370207681949550  3.4788741213417378
  1.8338356032753462  1.5188039723125910  1.1123820842777392
  4.5452272266180946  2.5099658977224162  1.0364062092170228
  0.5971168769908063  2.0639016716916991  3.4744726139523183
 -1.8130090446542364  2.9241711724229278  3.6572770899389315
