P2 F10                                  
   1.00000000000000     
     5.1832917583296947   -0.1033225634352317    0.0005455773291828
    -0.1233731658089079    5.1629109578200767    0.0224162515849133
    -0.0373006682939811   -0.0225202030997436    7.6339112621213774
   P    F 
     2    10
Direct
  0.5040934372983981  0.5412469682584736  0.2014283225362209
  0.0136353273558949  0.0447200065752576  0.6726907309043835
  0.2211481267256447  0.8228145817691975  0.6735668698481391
  0.2100235849779554  0.2297113789479783  0.7724315640771237
  0.2985005619889300  0.7642635512188184  0.1898641418470817
  0.7092210701682230  0.3171679474034990  0.2081119436158427
  0.0143942682572062  0.0481473624456604  0.4679939417551324
  0.8060145425699337  0.2663818296417186  0.6745380759136800
  0.5101221659887671  0.5624966072396694  0.4054889401773040
  0.7001247285048465  0.7154628456929155  0.0942372861917663
  0.3025722858678512  0.3469314802219668  0.1147382526032785
  0.8180165200099533  0.8575254139761405  0.7701566836266269
 
  0.00000000E+00  0.00000000E+00  0.00000000E+00
  0.00000000E+00  0.00000000E+00  0.00000000E+00
  0.00000000E+00  0.00000000E+00  0.00000000E+00
  0.00000000E+00  0.00000000E+00  0.00000000E+00
  0.00000000E+00  0.00000000E+00  0.00000000E+00
  0.00000000E+00  0.00000000E+00  0.00000000E+00
  0.00000000E+00  0.00000000E+00  0.00000000E+00
  0.00000000E+00  0.00000000E+00  0.00000000E+00
  0.00000000E+00  0.00000000E+00  0.00000000E+00
  0.00000000E+00  0.00000000E+00  0.00000000E+00
  0.00000000E+00  0.00000000E+00  0.00000000E+00
  0.00000000E+00  0.00000000E+00  0.00000000E+00
