Rb1 H1 F2
1.0
   3.5836365222930913    0.0000000000000000   -0.0056721321307121
   0.0006127769899753    3.6077303366009330   -0.0004947439301755
   0.0000000000000000    0.0000000000000000    5.0516157150268555
Rb H F
1 1 2
direct
   0.1393495649099350    0.9292203783988952    0.5675480961799622 Rb
   0.6366580128669739    0.4281702637672424    0.0677206590771675 H
   0.6363356709480286    0.4273365736007690    0.2934690117835999 F
   0.6358784437179565    0.4281730353832245    0.8431936502456665 F
