Bi1 F3                                  
   1.00000000000000     
     3.6769709327827247    0.0014469029014170   -2.1112901150927090
     0.0035625494537513    4.5589251342390664   -0.0027547495596236
    -0.0028194499821095   -0.0010733528035005    4.2327351784791292
   Bi   F 
     1     3
Direct
  0.4406551503412254  0.1878237199510483  0.8218251100039368
  0.4399040633669316  0.6879604888590681  0.8220344693464970
  0.1075986140320367  0.1888289822419786  0.1551388726900945
  0.7739330191559780  0.1873599760097105  0.4884812317163000
 
  0.00000000E+00  0.00000000E+00  0.00000000E+00
  0.00000000E+00  0.00000000E+00  0.00000000E+00
  0.00000000E+00  0.00000000E+00  0.00000000E+00
  0.00000000E+00  0.00000000E+00  0.00000000E+00
