Mg2 Fe2 F8
1.0
   3.2210724353790283    0.0000000000000000    0.0166214257478715
   0.0173322470306893    4.7680539778074333    0.0697542801499370
   0.0000000000000000    0.0000000000000000    9.5017738342285156
Mg Fe F
2 2 8
direct
   0.7004716992378235    0.3101137578487396    0.8944603800773621 Mg
   0.7005687355995178    0.3105365931987762    0.3946767747402191 Mg
   0.2009024322032928    0.8103110790252686    0.6449003219604492 Fe
   0.2002502232789993    0.8103585243225099    0.1445590704679489 Fe
   0.7011283040046692    0.6058183908462524    0.0433681681752205 F
   0.7001456618309021    0.0146906115114689    0.2469338476657867 F
   0.2006590217351913    0.1161249652504921    0.4927874207496643 F
   0.6995365023612976    0.6058847308158876    0.5420225858688354 F
   0.2003864496946335    0.1148230805993080    0.9920472502708435 F
   0.7014499902725220    0.0147192282602191    0.7474932670593262 F
   0.2003732770681381    0.5050096511840820    0.2972125411033630 F
   0.2004488110542297    0.5056330561637878    0.7974017262458801 F
