Rb3 Bi1 F6
1.0
   6.2312026023864746    0.0000000000000000   -1.2621171474456787
  -1.4739533311558273    5.8243909612628348   -1.1311700344085687
   0.0000000000000000    0.0000000000000000    6.1678848266601562
Rb Bi F
3 1 6
direct
   0.7371294498443604    0.8507820367813110    0.9680920243263245 Rb
   0.2369292080402375    0.8504837751388551    0.4683170318603516 Rb
   0.7370369434356689    0.3522821664810181    0.4686956703662872 Rb
   0.2371705770492554    0.3502222895622253    0.9685155153274536 Bi
   0.4223825335502625    0.4272563457489014    0.7080263495445251 F
   0.0519347041845322    0.2725937962532043    0.2279222458600998 F
   0.5104857087135315    0.6203886270523071    0.2358323633670807 F
   0.0519969090819359    0.6130171418190002    0.8935387134552002 F
   0.4235189557075501    0.0897890478372574    0.0423175320029259 F
   0.9644778966903688    0.0836518481373787    0.7010746002197266 F
