Ba1 Bi1 F5
1.0
   3.9781711101531982    0.0000000000000000   -0.0074319182895122
  -0.0093752632829028    6.6321292415793796   -0.0062817065045235
   0.0000000000000000    0.0000000000000000    3.9959676265716553
Ba Bi F
1 1 5
direct
   0.7678301334381104    0.1758976280689239    0.1251980066299438 Ba
   0.2670640349388123    0.6764541268348693    0.6265416145324708 Bi
   0.2669291794300079    0.1742411404848099    0.6258960962295533 F
   0.2666357755661011    0.4821227490901946    0.1264887452125549 F
   0.7669226527214050    0.4810622930526733    0.6267463564872743 F
   0.2669781744480133    0.8689895272254944    0.1265480965375900 F
   0.7678945660591125    0.8676726222038269    0.6274802088737489 F
