F  H  Mg Nb Sr
 1.0000000000000000
     5.5262912865768472    0.0000000000000000    0.0000000000000000
     0.5379233702775185    5.9981137993752283    0.0000000000000000
     3.5340322079513977   -0.4080747212482418    7.8835337011336186
 F   H   Mg  Nb  Sr 
  12   3   1   1   1
Cartesian
  4.4499321416230151  5.8833318374222197  0.3943744580835428
  7.1709475246704599  3.5346756272319650  4.8439125860015988
  4.1986893534490584  3.4896978212840737  5.9343326512557288
  3.3311960306956219  5.0946250381015830  2.8937303948921742
  3.5595474407884353  1.6770364581726358  3.9298721577677385
  7.4298682635282924  2.7199356794619285  7.2907759103951779
  5.3615539793201812  2.1501554310596465  1.7853559854804653
  1.7590155223155779  4.7228829683379052  1.1425978184994241
  6.9641328196175021  0.7535421110235528  5.5044081230196920
  2.0775734222692108  1.6549999913146576  1.5707300488703355
  5.8819977577594420  5.5461896129612853  2.9175371666136698
  3.9570456646411261  0.8197126878204660  6.4324521338261498
  6.3911537872029349  5.1282325758081813  2.1104867124540201
  2.7274591599969815  4.7904673446824733  2.1046576621775879
  6.4611154956774541  1.9426897444349662  1.7105384453070260
  3.8545822946016028  0.7804616400988557  2.0995358042160310
  2.7774825046998650  2.1720842477955364  5.6622651950805469
  6.1849555157845995  4.9925229984387851  6.8162103959147533
