Li3 Fe1 F5                              
   1.00000000000000     
     3.0140119514973209    0.2116920201192908   -0.2892524389569715
     0.6577371262389794    5.9851288694144609    0.2303011457367494
    -0.4280773785160485    0.3974245623794749    5.2003496732865013
   Li   Fe   F 
     3     1     5
Direct
  0.3942352506912997  0.7314140186941580  0.8667578646336389
  0.7000228647348846  0.8078846843581042  0.3374639702494615
  0.8040613387812939  0.1299648059726442  0.7720029954369775
  0.3042264968832056  0.3331246230734694  0.1755054830966675
  0.3906058096921099  0.0378443234373919  0.0347793578280522
  0.9036252985817380  0.2500702540710798  0.4191149998814669
  0.2229375088752673  0.6499293590573000  0.2440777819577345
  0.8085448269885288  0.8357173172997093  0.6814011668478666
  0.6992383910551652  0.4133073044787048  0.9274011760962729
 
  0.00000000E+00  0.00000000E+00  0.00000000E+00
  0.00000000E+00  0.00000000E+00  0.00000000E+00
  0.00000000E+00  0.00000000E+00  0.00000000E+00
  0.00000000E+00  0.00000000E+00  0.00000000E+00
  0.00000000E+00  0.00000000E+00  0.00000000E+00
  0.00000000E+00  0.00000000E+00  0.00000000E+00
  0.00000000E+00  0.00000000E+00  0.00000000E+00
  0.00000000E+00  0.00000000E+00  0.00000000E+00
  0.00000000E+00  0.00000000E+00  0.00000000E+00
