Na1 H3 F4
1.0
   3.5593180656433105    0.0000000000000000   -0.0521160177886486
  -0.2301760673838455    6.5761741262782225   -1.3454656600952137
   0.0000000000000000    0.0000000000000000    4.8774075508117676
Na H F
1 3 4
direct
   0.7785512208938599    0.0820764824748039    0.1756599694490433 Na
   0.2795189321041107    0.5816338658332825    0.6736268997192383 H
   0.2782952785491943    0.0802659243345261    0.6746652126312256 H
   0.2769751250743866    0.5821421742439270    0.1717463880777359 H
   0.2799681425094604    0.5815370678901672    0.4235523939132690 F
   0.2788728475570679    0.0812310278415680    0.8998415470123291 F
   0.2773561179637909    0.0799013078212738    0.4494701623916626 F
   0.2763607501983643    0.5808551907539368    0.9243006110191345 F
