Ba4 Al1 F11
1.0
   6.0775256156921387    0.0000000000000000    0.0030730532016610
   0.0001007962380528    7.5867571824053712    3.0185780525207515
   0.0000000000000000    0.0000000000000000    6.0876617431640625
Ba Al F
4 1 11
direct
   0.0208510030061007    0.4110587239265442    0.1626789718866348 Ba
   0.5205190181732178    0.9821587204933165    0.3769255876541137 Ba
   0.5202824473381042    0.4010390639305114    0.6673879623413087 Ba
   0.0206317696720362    0.9951651096343994    0.8716565370559691 Ba
   0.0202298853546381    0.6882986426353453    0.5249157547950745 Al
   0.0200749356299639    0.9262915849685668    0.4068491756916047 F
   0.8057555556297301    0.6847833395004272    0.7402668595314026 F
   0.2360791563987732    0.6873511672019958    0.3115541040897369 F
   0.8049965500831603    0.6857681274414062    0.3140056431293488 F
   0.0216990560293198    0.4508686959743499    0.6424897909164429 F
   0.5204280614852905    0.9408201575279235    0.8990399241447448 F
   0.7673335671424865    0.2062408179044724    0.0269161704927683 F
   0.2731469273567200    0.2056466042995453    0.0273744910955429 F
   0.2353296279907226    0.6857903003692626    0.7400448918342590 F
   0.7677571177482604    0.2057741433382034    0.5031609535217285 F
   0.2732683718204498    0.2052104324102402    0.5038658976554871 F
