Ba3 Mn1 F8                              
   1.00000000000000     
     7.0459963589120518   -0.2267708716983152   -4.0905251905300615
    -2.5028418699693926    3.8359674109177360   -0.0205232256550840
    -0.0239944391542088    0.0017442207464361    8.2092661275296823
   Ba   Mn   F 
     3     1     8
Direct
  0.1074446574658522  0.6108140296888945  0.7084538452743011
  0.1072349929124380  0.6107130976502223  0.2083139955231675
  0.6072876451203186  0.6110501403633817  0.7083546842378682
  0.6072854498467024  0.6098405536146422  0.2084401514918943
  0.3803520661162594  0.3279393114878040  0.3044838537438249
  0.8455189295875331  0.3396407585412318  0.8273340791578593
  0.8172281622970400  0.4492598729403037  0.3132873245188099
  0.3695215093081158  0.8828450337750455  0.5894991590470101
  0.8342904334376267  0.8919459689685337  0.1115045298823084
  0.3982546809718119  0.7726146264380377  0.1042283843714293
  0.8340653800128064  0.8921793797956519  0.5320945384360518
  0.3802759503396486  0.3283849980184474  0.8846143902676622
 
  0.00000000E+00  0.00000000E+00  0.00000000E+00
  0.00000000E+00  0.00000000E+00  0.00000000E+00
  0.00000000E+00  0.00000000E+00  0.00000000E+00
  0.00000000E+00  0.00000000E+00  0.00000000E+00
  0.00000000E+00  0.00000000E+00  0.00000000E+00
  0.00000000E+00  0.00000000E+00  0.00000000E+00
  0.00000000E+00  0.00000000E+00  0.00000000E+00
  0.00000000E+00  0.00000000E+00  0.00000000E+00
  0.00000000E+00  0.00000000E+00  0.00000000E+00
  0.00000000E+00  0.00000000E+00  0.00000000E+00
  0.00000000E+00  0.00000000E+00  0.00000000E+00
  0.00000000E+00  0.00000000E+00  0.00000000E+00
