K2 Te1 H2 O1 F6                         
   1.00000000000000     
     5.2395861801354053   -0.0407072451950062   -1.1542315172974489
    -1.7863745719453745    4.7024330473505627   -0.7232501262611997
     0.0218160652305485    0.0337675665964977    7.8070366119939250
   K    Te   H    O    F 
     2     1     2     1     6
Direct
  0.0678293866834999  0.6163679978561367  0.2362135970089596
  0.8596750345848436  0.0522891449117296  0.5325350276109634
  0.4873242497933170  0.7911270065396072  0.8884156467138269
  0.4671090188288272  0.3397255932754355  0.3974849179089602
  0.2242251320080980  0.0923048228918036  0.9279733265777197
  0.1839353330123625  0.8886347000162373  0.9319734091935664
  0.2017207350046792  0.3903963683582085  0.8481915455316811
  0.6986664960082867  0.4685610074775954  0.4435122300985709
  0.3558379840770933  0.8310173448287191  0.6297748279251186
  0.2347387098204299  0.2091675192173701  0.3521790081142576
  0.6946091028916129  0.2140665717726300  0.9534859887633821
  0.5869824482588595  0.7918225919953440  0.1561514357231899
 
  0.00000000E+00  0.00000000E+00  0.00000000E+00
  0.00000000E+00  0.00000000E+00  0.00000000E+00
  0.00000000E+00  0.00000000E+00  0.00000000E+00
  0.00000000E+00  0.00000000E+00  0.00000000E+00
  0.00000000E+00  0.00000000E+00  0.00000000E+00
  0.00000000E+00  0.00000000E+00  0.00000000E+00
  0.00000000E+00  0.00000000E+00  0.00000000E+00
  0.00000000E+00  0.00000000E+00  0.00000000E+00
  0.00000000E+00  0.00000000E+00  0.00000000E+00
  0.00000000E+00  0.00000000E+00  0.00000000E+00
  0.00000000E+00  0.00000000E+00  0.00000000E+00
  0.00000000E+00  0.00000000E+00  0.00000000E+00
