F  H  Te
 1.0000000000000000
     5.2173192734674529    0.0000000000000000    0.0000000000000000
    -1.3944925825296324    5.1622830124846990    0.0000000000000000
    -0.1557934016723395   -1.1825567294908110    4.7408741661859848
 F   H   Te 
   6   2   1
Cartesian
  1.5405488240499379  3.3248242129763694  0.1711970932622460
  2.1337865953566109  3.8580437143671418  3.0393059938507747
  3.2049072253055315  0.9170564036976112  0.8913370841885501
  0.7510675334627905 -0.7120499370332684  3.8729312300902259
  3.7874387879678877  1.8154758239793667  3.6445976532546873
  1.1122092199696318  0.4970576186388420  1.9660834755995966
  0.8840708472946264 -0.0269990641074593  2.9640090975231259
  2.3360139652087168  0.7100885305040502  1.4016168663022379
  2.9413851260922375  3.2015318086765663  4.6397329575263484
