Cs1 Rb2 H3 N1 F3                        
   1.00000000000000     
     5.6473961066071761   -0.0137362307336301    0.0695932868652016
     0.0109381208451571    5.8738409892262728    0.0141292841761026
     0.1024995351095558   -0.0145127222104587    5.9809069303440285
   Cs   Rb   H    N    F 
     1     2     3     1     3
Direct
  0.1323072182222886  0.8332622986615953  0.8685827916987866
  0.6356037600765653  0.3338050561282620  0.8207097575736975
  0.6263299647830474  0.8344912916922975  0.3485044622513598
  0.0240179815379868  0.4763429573963249  0.3792955860908892
  0.0244411959990865  0.1955915961476740  0.3813854322671158
  0.0203938198819496  0.3340775249356976  0.1454831832846286
 -0.0512791486072029  0.3351499660551417  0.3076983763380413
  0.1385184489212933  0.3329654652724526  0.8528452338727410
  0.1285765385710637  0.8331432092362938  0.3735138973962844
  0.6321516550616862  0.8333728359598952  0.8394131165467831
 
  0.00000000E+00  0.00000000E+00  0.00000000E+00
  0.00000000E+00  0.00000000E+00  0.00000000E+00
  0.00000000E+00  0.00000000E+00  0.00000000E+00
  0.00000000E+00  0.00000000E+00  0.00000000E+00
  0.00000000E+00  0.00000000E+00  0.00000000E+00
  0.00000000E+00  0.00000000E+00  0.00000000E+00
  0.00000000E+00  0.00000000E+00  0.00000000E+00
  0.00000000E+00  0.00000000E+00  0.00000000E+00
  0.00000000E+00  0.00000000E+00  0.00000000E+00
  0.00000000E+00  0.00000000E+00  0.00000000E+00
