Na3 Dy1 F6                              
   1.00000000000000     
     3.5848797360278497    0.0043072115617928   -0.0045221489392447
     1.7796688803995777    6.8240279737733225   -0.2624609780911515
     0.0056860777186348    0.0294956656152055    5.7902138538091892
   Na   Dy   F 
     3     1     6
Direct
  0.1310735509790461  0.2353650340111668  0.7967716696932436
  0.7620516373301846  0.9740501165796012  0.3761395407645794
  0.0501202928160310  0.3973169328581985  0.3222314965372899
  0.3937110294821883  0.7101329181195395  0.9038384694727181
  0.8995853513416789  0.6993008333976968  0.1456716383681327
  0.5485818986186274  0.4024379583206805  0.0220924489971287
  0.2493499049387475 -0.0013082817843801  0.0919603085793782
  0.9467187017044885  0.6041848372758881  0.7003653346265755
  0.6099885293969630  0.2776843942673314  0.5251810113751815
  0.2923888394257229  0.9147357946500134  0.6214137135505747
 
  0.00000000E+00  0.00000000E+00  0.00000000E+00
  0.00000000E+00  0.00000000E+00  0.00000000E+00
  0.00000000E+00  0.00000000E+00  0.00000000E+00
  0.00000000E+00  0.00000000E+00  0.00000000E+00
  0.00000000E+00  0.00000000E+00  0.00000000E+00
  0.00000000E+00  0.00000000E+00  0.00000000E+00
  0.00000000E+00  0.00000000E+00  0.00000000E+00
  0.00000000E+00  0.00000000E+00  0.00000000E+00
  0.00000000E+00  0.00000000E+00  0.00000000E+00
  0.00000000E+00  0.00000000E+00  0.00000000E+00
