Na4 Y3 F13
1.0
   6.1741089820861816    0.0000000000000000   -2.0285894870758048
  -3.0077280185530397    5.8010557863930527   -0.0122775500640265
   0.0000000000000000    0.0000000000000000    7.5064296722412109
Na Y F
4 3 13
direct
   0.6600489616394043    0.7954106330871582    0.8763673901557923 Na
   0.2400995641946793    0.8482423424720764    0.5857001543045045 Na
   0.9509047269821167    0.1853589862585068    0.3535485565662385 Na
   0.5015050768852234    0.3025674223899841    0.8152961730957033 Na
   0.5788862109184265    0.5078671574592590    0.3368968963623047 Y
   0.2406713366508485    0.8747524023056031    0.1522778719663621 Y
   0.0401567332446575    0.3694656789302826    0.8496265411376954 Y
   0.5746949911117554    0.2079312652349472    0.1617533713579178 F
   0.4429187178611755    0.5034397840499878    0.0077378991991282 F
   0.6615534424781799    0.1023232936859131    0.7515315413475038 F
   0.0358505547046661    0.0715455859899521    0.0165093690156937 F
   0.1028597205877304    0.1514842957258224    0.6724355220794679 F
   0.3343614935874939    0.1500827819108963    0.3906669914722443 F
   0.8819782733917236    0.5892674326896667    0.9282025098800660 F
   0.9431805014610291    0.7494516968727112    0.2945114970207215 F
   0.8968057632446289    0.4654828310012817    0.5560407042503358 F
   0.4933732151985168    0.5724267363548279    0.5917329192161561 F
   0.2863199114799500    0.7829535007476807    0.8792074322700502 F
   0.1756871044635773    0.4927423596382141    0.1978861987590790 F
   0.5866597294807434    0.8569776415824890    0.3218295872211457 F
