K1 Sb2 F7                               
   1.00000000000000     
     4.5983463993205556   -0.0646765693140478    1.0171443848598054
    -0.9934014244241788    6.2375157429553685   -1.9279430719972714
     0.0363237371279250   -0.1033332965165188    6.6307343673165384
   K    Sb   F 
     1     2     7
Direct
  0.3057622954521516  0.4113201578609948  0.9411482319038927
  0.7407219118323348  0.0702974941388464  0.2808434397343297
  0.0348770969481247  0.7392342045732789  0.6126119279581508
  0.8771879890853221  0.5476135431486313  0.8024715843431988
  0.9983805048500223  0.9805261199485722  0.9130905419066387
  0.4345468096393182  0.8057133737529045  0.2029055122798717
  0.5536285935137147  0.2141146714375173  0.1429250054290902
  0.4415289301000838  0.1497322942145599  0.5471259821134160
  0.4314918414916843  0.7093218483143346  0.6460702609080737
  0.0041637025614105  0.4358352387191782  0.3723910681680583
 
  0.00000000E+00  0.00000000E+00  0.00000000E+00
  0.00000000E+00  0.00000000E+00  0.00000000E+00
  0.00000000E+00  0.00000000E+00  0.00000000E+00
  0.00000000E+00  0.00000000E+00  0.00000000E+00
  0.00000000E+00  0.00000000E+00  0.00000000E+00
  0.00000000E+00  0.00000000E+00  0.00000000E+00
  0.00000000E+00  0.00000000E+00  0.00000000E+00
  0.00000000E+00  0.00000000E+00  0.00000000E+00
  0.00000000E+00  0.00000000E+00  0.00000000E+00
  0.00000000E+00  0.00000000E+00  0.00000000E+00
