Li4 Mn2 F8                              
   1.00000000000000     
     4.6302776961730014   -0.1846257940315639   -2.4495170168156339
    -0.7021337908116474    4.7932429831118535    0.1120130921102931
     0.1081362144143519   -0.0793316662784066    6.5619282742953464
   Li   Mn   F 
     4     2     8
Direct
  0.4745150518631933  0.8896254502111497  0.9544547001016681
  0.9709225768193805  0.2069884538442489  0.8964934879871367
  0.5579636541774339  0.4435620727960559  0.1347884647854880
  0.7842454494351017  0.7139673217762226  0.6451759837372933
  0.2341644368910057  0.2893137498823533  0.5523281014509513
  0.0782988353891282  0.0088525114867152  0.3155428045070305
  0.3263841919570598  0.1385724643238752  0.1808297190643141
  0.8011434238168877  0.8142576918795973  0.9286541128316207
  0.2872516740474672  0.6799558450529405  0.4395262954676415
  0.6420418384316287  0.3181331332249678  0.6442979699197118
  0.2507085141504373  0.5122669673973024  0.8424971878653913
  0.7525537348016795  0.7679704556176914  0.3299762626732258
  0.1486427151615161  0.0105764155513433  0.7361242468960733
  0.8172484356468001  0.2500622107044402  0.1211237603086228
 
  0.00000000E+00  0.00000000E+00  0.00000000E+00
  0.00000000E+00  0.00000000E+00  0.00000000E+00
  0.00000000E+00  0.00000000E+00  0.00000000E+00
  0.00000000E+00  0.00000000E+00  0.00000000E+00
  0.00000000E+00  0.00000000E+00  0.00000000E+00
  0.00000000E+00  0.00000000E+00  0.00000000E+00
  0.00000000E+00  0.00000000E+00  0.00000000E+00
  0.00000000E+00  0.00000000E+00  0.00000000E+00
  0.00000000E+00  0.00000000E+00  0.00000000E+00
  0.00000000E+00  0.00000000E+00  0.00000000E+00
  0.00000000E+00  0.00000000E+00  0.00000000E+00
  0.00000000E+00  0.00000000E+00  0.00000000E+00
  0.00000000E+00  0.00000000E+00  0.00000000E+00
  0.00000000E+00  0.00000000E+00  0.00000000E+00
