Na2 Li1 Sc1 F6
1.0
   4.7898674011230469    0.0000000000000000    2.4301486015319829
   1.7770543340328129    4.4619696954423125    2.4454813003540044
   0.0000000000000000    0.0000000000000000    5.8724598884582520
Na Li Sc F
2 1 1 6
direct
   0.4190428256988525    0.3272793292999268    0.0205753650516271 Na
   0.7044558525085449    0.6136025786399841    0.1641099452972412 Na
   0.9095817804336548    0.8158817887306213    0.5531682372093201 Li
   0.2163026034832001    0.1239407733082771    0.6305654644966125 Sc
   0.2841426730155945    0.5107967257499695    0.3749955892562866 F
   0.0169792715460062    0.1909621506929398    0.3738313317298889 F
   0.4848761856555939    0.0111067909747362    0.8389132022857666 F
   0.8520727753639221    0.3928427100181580    0.8375166058540344 F
   0.1046419069170951    0.7592697739601136    0.8377346396446228 F
   0.6032575368881226    0.9253616333007814    0.3742644786834717 F
