Cs1 P1 F6                               
   1.00000000000000     
     5.1310957494105889    0.0499148050063453   -2.5350248380145910
    -1.1289022699621845    5.2720024154678864   -2.4907982752820228
    -0.3245317937164635   -0.5740894627507810    5.7573079551219397
   Cs   P    F 
     1     1     6
Direct
  0.9244859685663397  0.4965881942167957  0.6368308357185516
  0.4241086096649475 -0.0042715492268134  0.6351137497670880
  0.4286210597483885  0.7408888156894529  0.6741021849404857
  0.3665219912524991  0.1638557755218135  0.9181262693309262
  0.4819019972593095  0.8278211555072581  0.3521321243514363
  0.4199840285023702  0.2500549260289103  0.5954019172582088
  0.7637187204210319  0.1244310870768467  0.9010834617064983
  0.0841711699790571 -0.1325888905983769  0.3696169016423061
 
  0.00000000E+00  0.00000000E+00  0.00000000E+00
  0.00000000E+00  0.00000000E+00  0.00000000E+00
  0.00000000E+00  0.00000000E+00  0.00000000E+00
  0.00000000E+00  0.00000000E+00  0.00000000E+00
  0.00000000E+00  0.00000000E+00  0.00000000E+00
  0.00000000E+00  0.00000000E+00  0.00000000E+00
  0.00000000E+00  0.00000000E+00  0.00000000E+00
  0.00000000E+00  0.00000000E+00  0.00000000E+00
