Na2 Mg2 F6                              
   1.00000000000000     
     5.1790631867754398    0.0997194897147509   -1.4022718702921577
    -2.1375088661603807    4.7142606589629459   -1.4120830668296547
    -0.0402593709206730   -0.0560543954402820    5.4429079982743662
   Na   Mg   F 
     2     2     6
Direct
  0.4858642241331890  0.3693455526596164  0.5632233456978437
  0.8966428693664611  0.9588074200278561  0.0633360679669354
  0.2859813228823357  0.5696885036443321  0.0629378382884200
  0.0967280493126229  0.7587026583371831  0.5628104741129935
  0.2800600827444786  0.9160467079787510  0.3317368603527181
  0.6915283000141398  0.6638134712937958  0.3118018979926003
  0.9391794682585238  0.5760292561278454  0.7945201773899921
  0.1033901513456320  0.4118936729627418  0.2944598770186109
  0.4428965223992641  0.7527144122026581  0.8309985145531030
  0.1907913957580860  0.1644945954757079  0.8117400697675948
 
  0.00000000E+00  0.00000000E+00  0.00000000E+00
  0.00000000E+00  0.00000000E+00  0.00000000E+00
  0.00000000E+00  0.00000000E+00  0.00000000E+00
  0.00000000E+00  0.00000000E+00  0.00000000E+00
  0.00000000E+00  0.00000000E+00  0.00000000E+00
  0.00000000E+00  0.00000000E+00  0.00000000E+00
  0.00000000E+00  0.00000000E+00  0.00000000E+00
  0.00000000E+00  0.00000000E+00  0.00000000E+00
  0.00000000E+00  0.00000000E+00  0.00000000E+00
  0.00000000E+00  0.00000000E+00  0.00000000E+00
