Rb3 Pr1 F6
1.0
   4.2351651191711426    0.0000000000000000   -1.1672244071960447
  -1.0264321802186072    6.4432985217035883   -3.3751678466796871
   0.0000000000000000    0.0000000000000000    8.0497217178344727
Rb Pr F
3 1 6
direct
   0.2545816004276276    0.1067372784018517    0.8769766688346863 Rb
   0.7075554132461548    0.5611255764961243    0.7839333415031433 Rb
   0.4814508557319641    0.8346949815750122    0.3290589153766632 Rb
   0.9815793037414551    0.3350064456462860    0.3307268023490906 Pr
   0.8544505238533020    0.4147235155105591    0.0674671083688737 F
   0.4938183724880219    0.5076292157173157    0.3512123227119446 F
   0.1261018812656402    0.6664768457412719    0.6191169023513794 F
   0.1057891547679901    0.2523916959762573    0.5904695987701416 F
   0.8390033245086670    0.0018705129623413    0.0455695614218712 F
   0.4699834287166595    0.1667589545249939    0.3129313588142395 F
