Rb4 Al1 F7
1.0
   5.3282351493835440    0.0000000000000000   -3.0143332481384291
  -1.7314396747402592    6.8179953669901465    3.0143637657165536
   0.0000000000000000    0.0000000000000000    6.1177797317504883
Rb Al F
4 1 7
direct
   0.3211816549301147    0.8873628973960876    0.5739200711250305 Rb
   0.0732373446226120    0.1409994959831238    0.8222546577453613 Rb
   0.5138329267501831    0.4764095842838287    0.3781922161579132 Rb
   0.8785721659660339    0.5526991486549377    0.0195601955056190 Rb
   0.6966829299926758    0.0138946622610092    0.1985235363245010 Al
   0.6083934903144836    0.1749470084905624    0.8611815571784973 F
   0.3607623875141144    0.8547593355178833    0.1104591265320777 F
   0.1964529454708099    0.5130605101585388    0.6979814171791077 F
   0.7842242121696472    0.8536341786384581    0.5363129973411559 F
   0.0332392305135727    0.1726819872856140    0.2870845198631287 F
   0.6084833741188049    0.1764513403177261    0.2868956327438354 F
   0.7841244935989380    0.8522716164588928    0.1108304783701896 F
