Cs1 Na2 Gd1 F6
1.0
   6.0841102600097665    0.0000000000000000   -2.5116438865661621
  -2.2449838892069640    5.3692620427419060   -3.2880046367645250
   0.0000000000000000    0.0000000000000000    6.6125130653381348
Cs Na Gd F
1 2 1 6
direct
   0.9820345044136048    0.5642741918563843    0.9569025039672852 Cs
   0.1842629909515381    0.2618367373943329    0.4535804986953735 Na
   0.7811287045478821    0.8659257292747498    0.4603639841079712 Na
   0.4822503328323365    0.0634995698928833    0.9568960070610046 Gd
   0.6875515580177307    0.0654389113187790    0.7594247460365295 F
   0.3274409472942352    0.6507220864295959    0.6972521543502808 F
   0.1764980107545853    0.0642036050558090    0.6499360799789429 F
   0.7881972193717957    0.0627631023526192    0.2629483044147491 F
   0.6370909214019775    0.4765409529209136    0.2144049704074860 F
   0.2753438055515289    0.0640604272484779    0.1530101895332336 F
