Sr3 Pb1 F8                              
   1.00000000000000     
     4.1720562127072993   -0.0020625372503635   -0.0002334087055366
     0.0041816125175461    5.8989098689406934    0.0067352981981456
    -0.0013709881540370   -0.0044595017795106    8.3396050164249598
   Sr   Pb   F 
     3     1     8
Direct
  0.0878996767238062  0.3682186493229948  0.1847789834778474
  0.0883688340854728  0.3684462943698419  0.6805634100239027
  0.5879464921410457  0.8685602028282188  0.4329006453755778
  0.5881778033003177  0.8681885103184090  0.9330077976249109
  0.5885010656373119  0.1204445047463293  0.1865914827128936
  0.0889175720764822  0.1233160949278700  0.9326561131030018
  0.0878716799159328  0.6188897863455758  0.4324050906451427
  0.0881473005191010  0.6111673194678749  0.9327764203904010
  0.0871409312072504  0.1173380769415403  0.4330256428087604
  0.5868082132325384  0.6155770197038101  0.1867986225401271
  0.5884147775954561  0.1220214194785509  0.6785655716194782
  0.5883710798553199  0.6163395634273028  0.6787790808954554
 
  0.00000000E+00  0.00000000E+00  0.00000000E+00
  0.00000000E+00  0.00000000E+00  0.00000000E+00
  0.00000000E+00  0.00000000E+00  0.00000000E+00
  0.00000000E+00  0.00000000E+00  0.00000000E+00
  0.00000000E+00  0.00000000E+00  0.00000000E+00
  0.00000000E+00  0.00000000E+00  0.00000000E+00
  0.00000000E+00  0.00000000E+00  0.00000000E+00
  0.00000000E+00  0.00000000E+00  0.00000000E+00
  0.00000000E+00  0.00000000E+00  0.00000000E+00
  0.00000000E+00  0.00000000E+00  0.00000000E+00
  0.00000000E+00  0.00000000E+00  0.00000000E+00
  0.00000000E+00  0.00000000E+00  0.00000000E+00
