Ca1 H1 O1 F1
1.0
   3.3812000751495357    0.0000000000000000   -1.2418266534805298
  -1.4719809575908021    3.0495673695811223    1.2050093412399290
   0.0000000000000000    0.0000000000000000    5.2655129432678223
Ca H O F
1 1 1 1
direct
   0.4402648508548736    0.3684051930904388    0.3116610646247864 Ca
   0.9655894041061400    0.8400364518165588    0.8916162848472595 H
   0.0349686183035373    0.7701090574264525    0.0991560369729996 O
   0.8501793742179868    0.9642431139945983    0.5407870411872864 F
