Na2 La4 F14
1.0
   6.8827753067016593    0.0000000000000000   -2.0887210369110121
  -2.0496352544265908    4.9276860531102820   -0.0050046998076141
   0.0000000000000000    0.0000000000000000    8.3462009429931641
Na La F
2 4 14
direct
   0.4045652449131013    0.5825572013854980    0.0789232328534126 Na
   0.7236318588256836    0.2432529181241989    0.9205521941184998 Na
   0.0575735457241535    0.9098095893859864    0.2405382990837097 La
   0.0716167464852333    0.9157006740570068    0.7610903978347778 La
   0.7286621928215027    0.2454970479011535    0.4045623540878296 La
   0.3996436893939972    0.5802969336509705    0.5953983068466187 La
   0.7159827947616577    0.4902392327785492    0.6687679886817932 F
   0.7161342501640320    0.9880998730659484    0.6688802242279053 F
   0.3980531990528107    0.8283157348632811    0.8406781554222107 F
   0.0635998025536537    0.1542831212282181    0.9997912049293518 F
   0.3967466056346893    0.3275356590747833    0.8398089408874512 F
   0.8630980253219606    0.8144202828407289    0.4525133967399597 F
   0.4127615392208100    0.8384150862693787    0.3296603262424469 F
   0.0735492184758186    0.4138366281986237    0.3488677144050598 F
   0.4122726619243622    0.3339629471302032    0.3296284973621368 F
   0.7309875488281250    0.9945864677429199    0.1598418056964875 F
   0.7322443127632141    0.4975100457668304    0.1605966240167618 F
   0.0545176453888416    0.4086302518844604    0.6496567130088806 F
   0.0637815445661545    0.6715327501296997    0.9995553493499756 F
   0.2650983333587646    0.0097613660618663    0.5477482676506042 F
