Cs1 Zn2 F5
1.0
   4.0817136764526367    0.0000000000000000    0.0028803648892793
  -0.0028674065495880    4.0676526453468851   -1.3589003086090088
   0.0000000000000000    0.0000000000000000    6.8600716590881348
Cs Zn F
1 2 5
direct
   0.6425182223320007    0.8873783946037292    0.1275668740272522 Cs
   0.1427411586046219    0.2246993780136108    0.8035875558853149 Zn
   0.1420431584119797    0.5479420423507690    0.4523019194602966 Zn
   0.6427419781684875    0.2302805930376053    0.8165158033370972 F
   0.1425617039203644    0.3870703577995300    0.1277670413255692 F
   0.1421444863080978    0.7092201113700867    0.7722426056861877 F
   0.6420763134956360    0.5423998236656189    0.4387190043926239 F
   0.1428008228540421    0.0651005506515503    0.4837966263294220 F
