Na1 Gd2 Ho1 Zr1 F13                     
   1.00000000000000     
     5.8963939851793974   -0.0600155097700510    0.6038497975788466
    -0.4352330465823980    6.4502007789645681    2.9933148383968344
    -0.0544631261901092   -0.1318150191449122    8.0118089013460381
   Na   Gd   Ho   Zr   F 
     1     2     1     1    13
Direct
  0.6897894906491647  0.2577748615077415  0.7108563301605841
  0.0650917013815714  0.0937919907333416  0.0768326508072846
  0.9220293113197896  0.6521646813323072  0.9440149449234159
  0.3088052462300943  0.4713130637246907  0.3459588969832717
  0.4829270803967839  0.8634541808283841  0.5063158936098605
  0.5154157068679156  0.5524452359113863  0.5299167034703739
  0.2269321667923918  0.7541598989671445  0.7240205650761288
  0.7146197194741893  0.7609571164185964  0.7049908721471795
  0.6151403722073957  0.5583127709859772  0.1425071254306511
  0.2310367556507000 -0.0041382561282983  0.3354692279864255
  0.3628427869564764  0.1706725847471532  0.8943190767255685
  0.1374652804768627  0.3912012992058074  0.1328910139507984
  0.4745538809392711  0.1722557270069179  0.4874788732893540
  0.0112514806878049  0.3655335051250436  0.5195034952542038
  0.8639591536246833  0.3571920147778030  0.9131381027826658
  0.1277380215875354  0.7432525412040873  0.1463778041928930
  0.8700542281673699  0.9752848962454943  0.9061378045532041
  0.7430447177881373  0.9676003223267340  0.2982583085684559
 
  0.00000000E+00  0.00000000E+00  0.00000000E+00
  0.00000000E+00  0.00000000E+00  0.00000000E+00
  0.00000000E+00  0.00000000E+00  0.00000000E+00
  0.00000000E+00  0.00000000E+00  0.00000000E+00
  0.00000000E+00  0.00000000E+00  0.00000000E+00
  0.00000000E+00  0.00000000E+00  0.00000000E+00
  0.00000000E+00  0.00000000E+00  0.00000000E+00
  0.00000000E+00  0.00000000E+00  0.00000000E+00
  0.00000000E+00  0.00000000E+00  0.00000000E+00
  0.00000000E+00  0.00000000E+00  0.00000000E+00
  0.00000000E+00  0.00000000E+00  0.00000000E+00
  0.00000000E+00  0.00000000E+00  0.00000000E+00
  0.00000000E+00  0.00000000E+00  0.00000000E+00
  0.00000000E+00  0.00000000E+00  0.00000000E+00
  0.00000000E+00  0.00000000E+00  0.00000000E+00
  0.00000000E+00  0.00000000E+00  0.00000000E+00
  0.00000000E+00  0.00000000E+00  0.00000000E+00
  0.00000000E+00  0.00000000E+00  0.00000000E+00
