Mg1 S2 O6 F2
1.0
   5.3607482910156259    0.0000000000000000    0.0379025116562850
  -2.8048775684495406    4.6090451058847499    0.2010089010000236
   0.0000000000000000    0.0000000000000000    7.1436614990234375
Mg S O F
1 2 6 2
direct
   0.5860951542854309    0.7845816016197205    0.1788197010755539 Mg
   0.3018188476562500    0.1626885533332825    0.9636033773422242 S
   0.8688997626304626    0.4061014056205750    0.3929428458213807 S
   0.1588020622730255    0.5658193826675415    0.2940923869609833 O
   0.7198722362518311    0.0902659147977829    0.3842917382717133 O
   0.0124508114531636    0.0014798357151449    0.0617985650897026 O
   0.6788820624351501    0.5206514000892639    0.3517793118953705 O
   0.4484995901584625    0.4784145653247833    0.9702441096305848 O
   0.4925680756568909    0.0500530488789082    0.0057549495249987 O
   0.2360237985849380    0.1056655943393707    0.7468816637992860 F
   0.9363226294517517    0.4631544947624206    0.6095145940780640 F
