Ba4 Nd1 F11                             
   1.00000000000000     
     5.6131258137860511    0.0100632699149063    2.5323352276337165
     2.8172513489506428    6.8694980015461740    1.2203471567390340
    -0.0335123684255464   -0.0613893456027403    7.5654376121545042
   Ba   Nd   F 
     4     1    11
Direct
  0.7858932510701397  0.5652745964159410  0.5155234163089853
  0.3552988386970157  0.8220797507622687  0.1196823425885005
  0.1624738087773123  0.3841574448731213  0.9427429163617064
  0.5726399800587146  0.1910795769070738  0.3163066157149673
  0.9831825729065724  0.9861666308280976  0.7000722598777736
  0.6326966680151631  0.2637320136346293  0.6404081371853748
  0.2296834401256954  0.5141097364676160  0.2157001739978834
  0.8408725789647998  0.7088933734853876  0.8058130207914721
  0.5846875404976966  0.0770981675561779  0.9787310208840286
  0.6920908957428243  0.5138841277405045  0.2164656540763974
  0.4069299413044538  0.8838982876242760  0.4488922661982255
  0.2938644986804394  0.7108331973974151  0.8058434584007113
  0.0115316411868386  0.0783019677320114  0.9784372018344885
  0.1172062334103343  0.2627956284810086  0.6394547776770153
  0.0900286473007214  0.1871186930494181  0.2861966055475903
  0.9128727409236745  0.8832744176021319  0.4500786134947448
 
  0.00000000E+00  0.00000000E+00  0.00000000E+00
  0.00000000E+00  0.00000000E+00  0.00000000E+00
  0.00000000E+00  0.00000000E+00  0.00000000E+00
  0.00000000E+00  0.00000000E+00  0.00000000E+00
  0.00000000E+00  0.00000000E+00  0.00000000E+00
  0.00000000E+00  0.00000000E+00  0.00000000E+00
  0.00000000E+00  0.00000000E+00  0.00000000E+00
  0.00000000E+00  0.00000000E+00  0.00000000E+00
  0.00000000E+00  0.00000000E+00  0.00000000E+00
  0.00000000E+00  0.00000000E+00  0.00000000E+00
  0.00000000E+00  0.00000000E+00  0.00000000E+00
  0.00000000E+00  0.00000000E+00  0.00000000E+00
  0.00000000E+00  0.00000000E+00  0.00000000E+00
  0.00000000E+00  0.00000000E+00  0.00000000E+00
  0.00000000E+00  0.00000000E+00  0.00000000E+00
  0.00000000E+00  0.00000000E+00  0.00000000E+00
