Na3 Y1 F6
1.0
   3.3776986598968506    0.0000000000000000   -0.8845297694206239
   0.0094546532761639    5.7162306796884383    0.1238797158002853
   0.0000000000000000    0.0000000000000000    6.9956488609313965
Na Y F
3 1 6
direct
   0.2014171630144120    0.3149310052394866    0.2733284533023834 Na
   0.2844754755496979    0.7847890853881836    0.4380473792552948 Na
   0.9145455360412599    0.3569261431694031    0.6996201276779175 Na
   0.5463078022003174    0.8886724114418029    0.9635128378868103 Y
   0.0522469468414784    0.1317896395921707    0.9732831120491028 F
   0.1055712550878525    0.6811059117317199    0.0787670761346817 F
   0.7034776210784913    0.0157848522067070    0.2734753191471100 F
   0.3992063701152802    0.0791798532009125    0.6706447005271912 F
   0.7653461098670961    0.5129855275154114    0.4042903184890747 F
   0.4440665841102601    0.6067437529563904    0.7561988830566406 F
