Ba4 Cl5 F3
1.0
   4.3901267051696777    0.0000000000000000   -1.1458140611648562
  -0.0206070295540032    7.9687314615292584   -0.1372180283069601
   0.0000000000000000    0.0000000000000000    8.9407796859741211
Ba Cl F
4 5 3
direct
   0.2261301130056381    0.7302934527397157    0.0207065902650356 Ba
   0.6588221788406372    0.2442164719104767    0.8845238089561462 Ba
   0.8892392516136169    0.0925089120864868    0.3490998148918152 Ba
   0.0092474389821291    0.6000745296478271    0.5862738490104675 Ba
   0.8142063021659851    0.4895365238189697    0.1987216621637344 Cl
   0.2779278457164764    0.1527617275714874    0.1207664906978607 Cl
   0.4128377139568329    0.8103477954864502    0.3979443013668060 Cl
   0.4783470332622528    0.3154931068420410    0.5261496305465698 Cl
   0.0764979720115662    0.9848069548606873    0.7237040996551514 Cl
   0.6138519048690796    0.6387040019035339    0.7960664629936218 F
   0.1377772539854050    0.4252674281597137    0.8448556065559387 F
   0.7515988349914551    0.9056544899940491    0.0699689313769340 F
