Na1 H1 F2                               
   1.00000000000000     
     3.0100955634269337   -0.0000544580400883    0.0122790045694778
    -0.0004953600947904    3.0007931104920642    0.0020470269663134
    -0.0003229388469129   -0.0003690791035065    4.8359114953530602
   Na   H    F 
     1     1     2
Direct
  0.3326188921319402  0.0707672113099603  0.8933300329300915
  0.8341569514424557  0.5706138375067834  0.3926545291706129
  0.8341864812493949  0.5704494119856577  0.6302971829319038
  0.8327163975578009  0.5703413995348561  0.1551018802363278
 
  0.00000000E+00  0.00000000E+00  0.00000000E+00
  0.00000000E+00  0.00000000E+00  0.00000000E+00
  0.00000000E+00  0.00000000E+00  0.00000000E+00
  0.00000000E+00  0.00000000E+00  0.00000000E+00
