Rb1 H1 F2                               
   1.00000000000000     
     3.6694507746658300   -0.0036120613800323    0.0135808364627258
     0.0182809678049559    3.6770156496890936    0.0153342955137011
     0.0002172789135499   -0.0028469973274527    5.1675068952598924
   Rb   H    F 
     1     1     2
Direct
  0.2924820849722898  0.4911647028310779  0.4105439268480056
  0.7927060757883669  0.9910190040473017  0.9104880350047101
  0.7912544539686025  0.9913678073128012  0.6877454580911098
  0.7932301128555796  0.9896682476572689  0.1329130279826960
 
  0.00000000E+00  0.00000000E+00  0.00000000E+00
  0.00000000E+00  0.00000000E+00  0.00000000E+00
  0.00000000E+00  0.00000000E+00  0.00000000E+00
  0.00000000E+00  0.00000000E+00  0.00000000E+00
