Gd2 Cl2 F4
1.0
   3.8439488410949707    0.0000000000000000   -0.0046122996136546
   1.9288360272248033    5.0162959581604341    0.0151850227266550
   0.0000000000000000    0.0000000000000000    6.9611177444458008
Gd Cl F
2 2 4
direct
   0.1681294888257980    0.1313304156064987    0.9937341213226318 Gd
   0.7056581377983093    0.0598530545830727    0.4936014413833618 Gd
   0.8870729804039001    0.6941251158714294    0.9926542043685913 Cl
   0.9888468384742737    0.4945139884948730    0.4930577576160431 Cl
   0.2619529068470001    0.9467722177505493    0.6811318397521973 F
   0.6130697727203369    0.2439544349908828    0.1811005622148514 F
   0.6128981709480286    0.2435158193111420    0.8058829903602600 F
   0.2620842754840851    0.9468821287155150    0.3060997426509857 F
