Al2 F6                                  
   1.00000000000000     
     4.3488714736310170    0.0112170630891927   -0.0011387066031423
    -0.0140784898620590    4.0215065465459920   -2.3438260820637642
     0.0054573677364238    0.0124362834712243    4.6525664176029879
   Al   F 
     2     6
Direct
  0.3769921131932807  0.8608080873430825  0.3138012614710788
  0.8769454993930741  0.1940973949536470  0.9805967267895233
  0.1273036002795516  0.5268245506529716  0.0106309445420756
  0.6271160035075860  0.5279083961158515  0.2841562308551577
  0.1269984680105864  0.1636249886663312  0.2832856512894555
  0.6272374832301020  0.8901315780285686  0.0101023892811282
  0.6264974316363551  0.1643733946647086  0.6477074174701624
  0.1266139282467561  0.8907930502810921  0.6469390802322993
 
  0.00000000E+00  0.00000000E+00  0.00000000E+00
  0.00000000E+00  0.00000000E+00  0.00000000E+00
  0.00000000E+00  0.00000000E+00  0.00000000E+00
  0.00000000E+00  0.00000000E+00  0.00000000E+00
  0.00000000E+00  0.00000000E+00  0.00000000E+00
  0.00000000E+00  0.00000000E+00  0.00000000E+00
  0.00000000E+00  0.00000000E+00  0.00000000E+00
  0.00000000E+00  0.00000000E+00  0.00000000E+00
