K5 S2 O8 F1                             
   1.00000000000000     
     5.4166321569816018    0.0167955626409647    1.5476411553609433
     0.4579976549058308    5.2624644440701482   -1.3965602798312842
     0.0058867459249721   -0.0210712900989688   10.2372445981460825
   K    S    O    F 
     5     2     8     1
Direct
  0.1118253447328509  0.9802886909096729  0.3139725116870099
  0.3875804970097843  0.7049773468482489  0.7713974852786996
  0.7476460339725310  0.9166314734332676  0.0407204474692051
  0.4922925201258598  0.0880943312961807  0.5520500800604923
  0.2401420272611161  0.3512762490284820  0.0414486130662047
  0.6015949313065123  0.5017349351286059  0.3220286755567094
  0.8888906016355058  0.2343687257668386  0.7571401755903840
  0.0757724356605891  0.1317054779640551  0.8139809349166830
  0.4053027923378521  0.3727531790781758  0.2650093644864016
  0.5321484849007843  0.5461646010052789  0.4789350085306852
  0.9691783951503945  0.1404001979467313  0.5996579452361360
  0.6397891448640581  0.1444410419028480  0.8126821908989101
  0.8696833741665848  0.5179097760888409  0.8030510487783171
  0.8403936128915701  0.3382830344996773  0.2537190526976069
  0.6286630282793990  0.7556622032910131  0.2897170890664900
  0.2494364399254175  0.8369741366747772  0.0405520877103109
 
  0.00000000E+00  0.00000000E+00  0.00000000E+00
  0.00000000E+00  0.00000000E+00  0.00000000E+00
  0.00000000E+00  0.00000000E+00  0.00000000E+00
  0.00000000E+00  0.00000000E+00  0.00000000E+00
  0.00000000E+00  0.00000000E+00  0.00000000E+00
  0.00000000E+00  0.00000000E+00  0.00000000E+00
  0.00000000E+00  0.00000000E+00  0.00000000E+00
  0.00000000E+00  0.00000000E+00  0.00000000E+00
  0.00000000E+00  0.00000000E+00  0.00000000E+00
  0.00000000E+00  0.00000000E+00  0.00000000E+00
  0.00000000E+00  0.00000000E+00  0.00000000E+00
  0.00000000E+00  0.00000000E+00  0.00000000E+00
  0.00000000E+00  0.00000000E+00  0.00000000E+00
  0.00000000E+00  0.00000000E+00  0.00000000E+00
  0.00000000E+00  0.00000000E+00  0.00000000E+00
  0.00000000E+00  0.00000000E+00  0.00000000E+00
