Sr2 Zn2 F8                              
   1.00000000000000     
     5.3347075929050431   -0.0028621474698034    0.0036984535886228
     0.0034325870093592    5.7893481466911565   -0.0061685363988105
    -0.0047913581358665    0.0062555230179213    5.7913594650781075
   Sr   Zn   F 
     2     2     8
Direct
  0.0500824117858273  0.3681486580740539  0.6272423432450164
  0.0501420199970795  0.8680890292023470  0.1273512558459452
  0.5496102248727515  0.3676553365476399  0.1268167358895435
  0.5502798469110967  0.8677024379945441  0.6271764841811938
  0.3070801313645264  0.0469937785527670  0.4473600848599410
  0.7954496978487164  0.6892378483507035  0.4484117501436727
  0.7939320006279360  0.0474133022680522  0.8065024793861965
  0.3060010370836712  0.5470207045172444  0.3064253287010076
  0.3059485310880680  0.6888716966139873  0.8064846466102475
  0.3043144764211116  0.1889002582500285  0.9485135044767240
  0.7928246468828188  0.5472853479125869  0.9472530994106627
  0.7940128358532439  0.1891497265527287  0.3064222558167440
 
  0.00000000E+00  0.00000000E+00  0.00000000E+00
  0.00000000E+00  0.00000000E+00  0.00000000E+00
  0.00000000E+00  0.00000000E+00  0.00000000E+00
  0.00000000E+00  0.00000000E+00  0.00000000E+00
  0.00000000E+00  0.00000000E+00  0.00000000E+00
  0.00000000E+00  0.00000000E+00  0.00000000E+00
  0.00000000E+00  0.00000000E+00  0.00000000E+00
  0.00000000E+00  0.00000000E+00  0.00000000E+00
  0.00000000E+00  0.00000000E+00  0.00000000E+00
  0.00000000E+00  0.00000000E+00  0.00000000E+00
  0.00000000E+00  0.00000000E+00  0.00000000E+00
  0.00000000E+00  0.00000000E+00  0.00000000E+00
