F  Na Sr
 1.0000000000000000
     6.8309373291535538    0.0000000000000000    0.0000000000000000
     3.5306825888378151    5.8430042443336108    0.0000000000000000
     3.4307079970444794    1.9337975441077044    5.6143693853214254
 F   Na  Sr 
   8   6   1
Cartesian
 10.5272241436793443  3.0697543048926224  4.9576472134456804
 10.5710428076509739  4.9219379516785855  2.0878952505030517
 12.3738458287270934  5.9474055780818240  5.0224828578653797
  5.3140581549176629  2.1338053459907358  2.0938873589800222
  8.7675152740153450  5.9238713034775259  5.0511597116476601
  7.1161419106175190  3.1489265965076285  5.0218587496162144
  7.1530143894427196  5.0071779653100208  2.1544037727445073
  8.9160035532218007  2.1508884271047397  2.0588241878641944
  8.8901800309360937  5.9938254395391493  0.7423542576742250
  3.7136594202843045  3.0705809126279449  0.7444841734805915
  7.1926329488875709  6.9615373374314196  3.5601343172829285
  7.1273435101193892  3.0694364227913637  0.7591984038912021
  8.8407678179149496  4.0341015884632876  3.5605934467831184
  5.4776135483445021  5.9940665171899692  0.7470582435355930
  5.4243458896259131  4.0368269631114853  3.5546783060795035
