Na3 In1 F6
1.0
   5.9790081977844238    0.0000000000000000   -0.9981393218040460
  -3.0827471014177372    3.9329434824887657   -2.6274585723876958
   0.0000000000000000    0.0000000000000000    6.0513401031494141
Na In F
3 1 6
direct
   0.9443418383598328    0.2282677888870240    0.3339793980121613 Na
   0.6521841287612915    0.7384322285652161    0.6495858430862428 Na
   0.3373510539531708    0.2288526892662049    0.9429279565811157 Na
   0.2731029391288758    0.8615640401840211    0.2724965214729310 In
   0.2939429879188538    0.2686374187469482    0.5867854952812195 F
   0.2911299765110016    0.7877701520919800    0.5831807255744935 F
   0.5873244404792787    0.7891073822975160    0.2903634607791901 F
   0.5892320275306702    0.2666017413139344    0.2909655869007111 F
   0.9938718080520630    0.8382754921913147    0.9923693537712097 F
   0.9918967485427856    0.3239633738994598    0.9894582629203796 F
