Mo1 F6
1.0
   4.8678274154663086    0.0000000000000000    0.8546406626701357
  -1.2812320432408342    4.1427522421959448   -2.5091969966888428
   0.0000000000000000    0.0000000000000000    4.9919738769531250
Mo F
1 6
direct
   0.0986047312617302    0.8778105378150940    0.3682006299495696 Mo
   0.3266858756542206    0.2526977360248566    0.6681450009346008 F
   0.8702428340911865    0.5040023922920227    0.0677640587091446 F
   0.3228914737701416    0.6522876024246216    0.3684197962284088 F
   0.8702695965766907    0.8042020797729492    0.6696363091468811 F
   0.3271767199039459    0.9528429508209229    0.0665744543075561 F
   0.8742614984512329    0.1045451909303665    0.3677632808685303 F
