F  H  La Li
 1.0000000000000000
     5.1527286077398484    0.0000000000000000    0.0000000000000000
    -1.4812361479448706    3.9134659112367705    0.0000000000000000
    -0.3220279367793361   -0.1844217585168769    5.3803362016767791
 F   H   La  Li 
   6   1   1   2
Cartesian
  2.8506586934871465  0.0613906361838411  0.8338672943678360
  0.4857828938059541  3.3552378807401100  3.5274684140717483
 -0.3448564578370253  0.7781103413600050  2.7878848699574097
  2.8459864507609649  2.2471687345377971  4.8406928949239925
  2.2939423825690337  1.8115359518308705  2.1483511367413217
  0.3260168941858563  1.0879530019649910  0.1963040594627438
  2.5689689773197513  0.9426435717309986  1.4915522529728622
 -0.7407596331005775  2.8888029654758967  1.4904489086097763
  1.1911857503885273  1.4902803120572494  3.9589230415668171
  3.6356455517563777  0.1874961278036760  4.3977314808886305
