F  H  Li Na O 
 1.0000000000000000
     3.5742070166570379    0.0000000000000000    0.0000000000000000
    -0.0514190492467544    4.7523130421573301    0.0000000000000000
    -0.7351116871955777   -2.7995923214473986    4.4460346244022793
 F   H   Li  Na  O  
   1   3   1   1   2
Cartesian
  0.3459264190426863  2.7661831863682451  3.0968743391750428
  1.5750366027581653  1.0702758913008450  0.6660878806039414
  2.6733509185141582  2.6474394807536448  0.4764975664474652
  2.5917398035135437  4.2361059578882108  0.5312135372598803
  2.1337163690424799  2.1909696037329982  2.8717783494625415
  0.3257599142983602  0.2016187704244914  2.7990150548276849
  2.0705448015826868  0.6559959668801779  4.3590766386684061
  2.2150832902927649  0.9683903419071815  1.3796928898183567
