K1 H5 F6                                
   1.00000000000000     
     6.4085905713470881   -0.0428546626571458    0.4165441457983940
    -1.2347709372766156    4.1051358909806615    1.3840627055921482
     0.0552870550958378   -0.1398271303385419    5.7365849671511535
   K    H    F 
     1     5     6
Direct
  0.6265147158861727  0.4565772573322221  0.8811181627407293
  0.1274649364730842  0.9563953053660286  0.8826491088790906
  0.4386931374653356  0.7272718595000301  0.3251057049284476
  0.0368538409769449  0.1898548213482444  0.1232259210504689
  0.2183020576568056  0.7280570109404454  0.6388351582646543
  0.8187481492101821  0.1912842230390900  0.4366417046203943
  0.7277789245931438  0.1255532562995358  0.5997223179509934
  0.1711651724620808  0.0641353710508576  0.0385321003073135
  0.9307494881430919  0.3031529621708841  0.1861754605141010
  0.5308949302388511  0.7920621926393628  0.1626026980422740
  0.0834182298149249  0.8476409756046969  0.7266932593792198
  0.3249891135565577  0.6160591437641022  0.5733302284117689
 
  0.00000000E+00  0.00000000E+00  0.00000000E+00
  0.00000000E+00  0.00000000E+00  0.00000000E+00
  0.00000000E+00  0.00000000E+00  0.00000000E+00
  0.00000000E+00  0.00000000E+00  0.00000000E+00
  0.00000000E+00  0.00000000E+00  0.00000000E+00
  0.00000000E+00  0.00000000E+00  0.00000000E+00
  0.00000000E+00  0.00000000E+00  0.00000000E+00
  0.00000000E+00  0.00000000E+00  0.00000000E+00
  0.00000000E+00  0.00000000E+00  0.00000000E+00
  0.00000000E+00  0.00000000E+00  0.00000000E+00
  0.00000000E+00  0.00000000E+00  0.00000000E+00
  0.00000000E+00  0.00000000E+00  0.00000000E+00
