Li5 F5                                  
   1.00000000000000     
     4.9886886897123679    0.0125207145790993    2.8212634197594482
     1.6562940531910235    4.7052384822451163    2.8220271440161757
     0.0212906102543450    0.0129620190135448    5.7441348305647750
   Li   F 
     5     5
Direct
  0.3286767480142807  0.0406903924221112  0.3350772327409433
  0.9646507889376885  0.6773384771124867  0.4245858999508670
  0.3288086912510297  0.0411824742869086  0.7901284096401215
  0.8708918049811832  0.0409559091874962  0.7909639037555001
  0.3286689890666166  0.5848890567653577  0.7896255975118029
  0.0950882176157041  0.2842680410544781  0.5576563138570720
  0.0958206342475030  0.8076270818228396  0.5566466427697297
  0.4635812484878264  0.1778960172526319  0.9280133774030853
  0.5726325120737572  0.8076551094327888  0.5570855015234990
  0.0959080573324291  0.8078060767918037  0.0330629872295012
 
  0.00000000E+00  0.00000000E+00  0.00000000E+00
  0.00000000E+00  0.00000000E+00  0.00000000E+00
  0.00000000E+00  0.00000000E+00  0.00000000E+00
  0.00000000E+00  0.00000000E+00  0.00000000E+00
  0.00000000E+00  0.00000000E+00  0.00000000E+00
  0.00000000E+00  0.00000000E+00  0.00000000E+00
  0.00000000E+00  0.00000000E+00  0.00000000E+00
  0.00000000E+00  0.00000000E+00  0.00000000E+00
  0.00000000E+00  0.00000000E+00  0.00000000E+00
  0.00000000E+00  0.00000000E+00  0.00000000E+00
