Ca1 Mn3 F8                              
   1.00000000000000     
     5.1976030866392158    0.4845925366475538    0.4813039203824630
     0.4501797793283674    5.1977802893701508    0.4535155752826147
     0.4571710444798913    0.4783815073350524    5.1994781518702675
   Ca   Mn   F 
     1     3     8
Direct
  0.1630247289279993  0.8692063376124407  0.8508644830583718
  0.1629407680612144  0.3691411290108878  0.3508386149472262
  0.6633962538063465  0.8702996411870749  0.3510505737553425
  0.6625545005970990  0.3690864038411823  0.8501235928397594
  0.4653763785383592  0.6103384211992768  0.5908136352347962
  0.9294872064455277  0.6335611486644370  0.6171904188259077
  0.3977015004675813  0.1033064674784236  0.0844636605532850
  0.9041151865595953  0.6107310006533972  0.1528253864728146
  0.4217624607835344  0.1295726751483366  0.5495706276477903
  0.9033056258388977  0.1699781613364045  0.5905695049013221
  0.8606984987995500  0.1301183424300827  0.1096573980368332
  0.4225198001146098  0.5676403171142865  0.1103773232194626
 
  0.00000000E+00  0.00000000E+00  0.00000000E+00
  0.00000000E+00  0.00000000E+00  0.00000000E+00
  0.00000000E+00  0.00000000E+00  0.00000000E+00
  0.00000000E+00  0.00000000E+00  0.00000000E+00
  0.00000000E+00  0.00000000E+00  0.00000000E+00
  0.00000000E+00  0.00000000E+00  0.00000000E+00
  0.00000000E+00  0.00000000E+00  0.00000000E+00
  0.00000000E+00  0.00000000E+00  0.00000000E+00
  0.00000000E+00  0.00000000E+00  0.00000000E+00
  0.00000000E+00  0.00000000E+00  0.00000000E+00
  0.00000000E+00  0.00000000E+00  0.00000000E+00
  0.00000000E+00  0.00000000E+00  0.00000000E+00
