K2 Rb2 Li1 C2 O6 F1                     
   1.00000000000000     
     5.0911080194274057    0.0005277921782839   -1.4599193480878205
    -0.4140111814715820    5.2954686338998895   -1.3984465257445098
    -0.0749887952563681    0.0246951612935612    9.1341473027089108
   K    Rb   Li   C    O    F 
     2     2     1     2     6     1
Direct
  0.7329644770682190  0.4501365371660538  0.1928919526833104
  0.3977251625111573  0.2096984923523731  0.5222432802054425
  0.0498475507049277  0.2466045984612104  0.8253080382235009
  0.5957798584882706  0.7928628119338992  0.9162160765688256
  0.8178681027700181  0.0274788216626563  0.3603650237261132
  0.9268399382356264  0.6339552612614858  0.5719914062286364
  0.2309176807974651  0.8769865085717520  0.1835527578930013
  0.8794591294109813  0.8003436021781057  0.4900437444017509
  0.8859998294771368  0.3914166306033290  0.4982891365486879
  0.1922622452766378  0.6430647480881130  0.1045920730380002
  0.0133665093162461  0.7034486256189394  0.7248910048999879
  0.0379084430563681  0.9981387910206299  0.2243261527986787
  0.4642675416730154 -0.0015342083788077  0.2248723462840507
  0.5591536806235526  0.2620378921116061  0.8444687734916272
 
  0.00000000E+00  0.00000000E+00  0.00000000E+00
  0.00000000E+00  0.00000000E+00  0.00000000E+00
  0.00000000E+00  0.00000000E+00  0.00000000E+00
  0.00000000E+00  0.00000000E+00  0.00000000E+00
  0.00000000E+00  0.00000000E+00  0.00000000E+00
  0.00000000E+00  0.00000000E+00  0.00000000E+00
  0.00000000E+00  0.00000000E+00  0.00000000E+00
  0.00000000E+00  0.00000000E+00  0.00000000E+00
  0.00000000E+00  0.00000000E+00  0.00000000E+00
  0.00000000E+00  0.00000000E+00  0.00000000E+00
  0.00000000E+00  0.00000000E+00  0.00000000E+00
  0.00000000E+00  0.00000000E+00  0.00000000E+00
  0.00000000E+00  0.00000000E+00  0.00000000E+00
  0.00000000E+00  0.00000000E+00  0.00000000E+00
