Ca1 H1 O1 F1                            
   1.00000000000000     
     3.3968757428639256   -0.0026451155340750   -1.2411809870268893
    -1.4796977521052281    3.0664013288814957    1.2084364679047797
     0.0414741164686736   -0.0177741714317524    5.3765070711337222
   Ca   H    O    F 
     1     1     1     1
Direct
  0.4382460235141056  0.3704710068868701  0.3075868775608491
  0.9689025766691133  0.8364876421455824  0.9022729183330997
  0.0346686920920234  0.7695539212312746  0.1000461703501971
  0.8491849552072960  0.9662812460643216  0.5333144613881858
 
  0.00000000E+00  0.00000000E+00  0.00000000E+00
  0.00000000E+00  0.00000000E+00  0.00000000E+00
  0.00000000E+00  0.00000000E+00  0.00000000E+00
  0.00000000E+00  0.00000000E+00  0.00000000E+00
