Na1 Sr1 Al1 F6                          
   1.00000000000000     
     4.7557662041059494   -0.0032963080803120    2.7492477386993417
     1.5939643069636218    4.4833915347105711    2.7575865630807121
    -0.0008604559156102   -0.0029951082084457    5.4890184062863741
   Na   Sr   Al   F 
     1     1     1     6
Direct
  0.2720817689660495  0.4942792475753322  0.8024490015574613
  0.7716603562515466  0.9955547731279721  0.3021381552791167
  0.5220101546986389  0.7454976953044700  0.0523452369430280
  0.2884829853693198  0.9784981052984510  0.8193036036215040
  0.2893172833189113  0.5124319572511319  0.2859879094219894
  0.2884312624646561  0.9786210764421732  0.2852910914047920
  0.7543373579293682  0.9787334971510693  0.8188840007212619
  0.7550577410630791  0.5133307219145400  0.2857139369412501
  0.7552059404881283  0.5124356089735711  0.8195952128274770
 
  0.00000000E+00  0.00000000E+00  0.00000000E+00
  0.00000000E+00  0.00000000E+00  0.00000000E+00
  0.00000000E+00  0.00000000E+00  0.00000000E+00
  0.00000000E+00  0.00000000E+00  0.00000000E+00
  0.00000000E+00  0.00000000E+00  0.00000000E+00
  0.00000000E+00  0.00000000E+00  0.00000000E+00
  0.00000000E+00  0.00000000E+00  0.00000000E+00
  0.00000000E+00  0.00000000E+00  0.00000000E+00
  0.00000000E+00  0.00000000E+00  0.00000000E+00
