Rb2 Be1 B2 O3 F4                        
   1.00000000000000     
     4.5702825007410386   -0.0094859249233743    1.1159421278966837
     1.2144075965367942    5.8280788891436126   -3.6482499681172098
    -0.0366663007606276   -0.0870346650122030    7.4111911342814603
   Rb   Be   B    O    F 
     2     1     2     3     4
Direct
  0.8922768729408459  0.1914852577548119  0.8000145358451537
  0.1559074076605338  0.9399169175320786  0.1708662992118004
  0.5344559157934929  0.7827593027566108  0.4569927120324243
  0.7561078805719362  0.6313965137609419  0.6578325216012787
  0.1186503676072250  0.5263602554352684  0.3146433614781428
  0.2547224317467062  0.7113172366243098  0.3800459291917018
  0.5622408526350808  0.7893557286764918  0.6755394388080286
  0.9897803127531910  0.4703058619107657  0.4768110787615258
  0.7298923363347922  0.6280970863436656  0.8502799901847797
  0.8426278036736619  0.5792695082963916  0.2446593005783677
  0.2830220586317465  0.3100047413139552  0.1063393162820764
  0.5768750100055540  0.0159858400764332  0.4813747053181041
 
  0.00000000E+00  0.00000000E+00  0.00000000E+00
  0.00000000E+00  0.00000000E+00  0.00000000E+00
  0.00000000E+00  0.00000000E+00  0.00000000E+00
  0.00000000E+00  0.00000000E+00  0.00000000E+00
  0.00000000E+00  0.00000000E+00  0.00000000E+00
  0.00000000E+00  0.00000000E+00  0.00000000E+00
  0.00000000E+00  0.00000000E+00  0.00000000E+00
  0.00000000E+00  0.00000000E+00  0.00000000E+00
  0.00000000E+00  0.00000000E+00  0.00000000E+00
  0.00000000E+00  0.00000000E+00  0.00000000E+00
  0.00000000E+00  0.00000000E+00  0.00000000E+00
  0.00000000E+00  0.00000000E+00  0.00000000E+00
