Li3 Mn2 F7
1.0
   5.5373773574829102    0.0000000000000000   -0.4061844944953915
  -1.4284236040557656    5.3238111566342035   -0.9661656618118291
   0.0000000000000000    0.0000000000000000    5.3182473182678223
Li Mn F
3 2 7
direct
   0.3795882463455200    0.3360933661460876    0.8556259274482727 Li
   0.6666666666666666    0.8136304020881653    0.8475005626678467 Li
   0.6011569499969482    0.5997066497802734    0.3352170884609222 Li
   0.2264839857816696    0.9082306623458862    0.2782128155231476 Mn
   0.8228216171264648    0.2371103167533874    0.4210533201694489 Mn
   0.5690310001373291    0.9199191927909852    0.5346387028694153 F
   0.4800756573677063    0.2233655005693436    0.1641868650913239 F
   0.4063099622726440    0.6760860681533813    0.0418130941689014 F
   0.1271993368864059    0.1500903367996216    0.5964744091033936 F
   0.9586114883422852    0.5918369293212891    0.3214730620384216 F
   0.9238994717597961    0.0129677848890424    0.0981706306338310 F
   0.6526706218719482    0.4746194481849670    0.6730570197105408 F
