Na3 Ca2 Al2 F13
1.0
   5.2358651161193848    0.0000000000000000    0.5552234053611755
   2.0699886089553412    5.6429129297891114    0.3933478891849519
   0.0000000000000000    0.0000000000000000    8.8585290908813477
Na Ca Al F
3 2 2 13
direct
   0.5898301601409912    0.1343228816986084    0.4992291331291199 Na
   0.9068850874900818    0.5455729365348816    0.3863534033298492 Na
   0.7386220097541809    0.8311324715614320    0.8846878409385681 Na
   0.1737607568502426    0.9740871191024780    0.2146584540605545 Ca
   0.0498021915555000    0.2691668272018433    0.7854451537132263 Ca
   0.5507842898368835    0.3258760571479797    0.1028251722455025 Al
   0.3086491525173188    0.7027859687805176    0.6356196999549866 Al
   0.9729451537132264    0.9568994045257568    0.6594992280006409 F
   0.1908302605152130    0.6017464995384216    0.8167275786399841 F
   0.3001708686351776    0.6098459959030151    0.1364148259162903 F
   0.7836874127388000    0.3469887375831604    0.2327322661876678 F
   0.6559107899665833    0.4753491282463074    0.6286176443099976 F
   0.4283718764781951    0.9279007315635682    0.7127177715301514 F
   0.3588390946388245    0.1873609125614166    0.9933518171310425 F
   0.3765159845352173    0.2179631888866425    0.2706178724765778 F
   0.2015724927186966    0.4644304513931274    0.5646989345550537 F
   0.8752251267433165    0.8892644643783570    0.3527403771877289 F
   0.8513983488082886    0.0578187815845013    0.0327127650380135 F
   0.6972217559814453    0.4733663499355316    0.9471189379692078 F
   0.3904576599597931    0.7986676096916200    0.4464775025844574 F
