Li2 Mn1 F4
1.0
   3.0880324840545654    0.0000000000000000    0.0234346035867921
   0.0005499716373740    5.2087740607786843    0.1363042145967483
   0.0000000000000000    0.0000000000000000    4.9224147796630859
Li Mn F
2 1 4
direct
   0.2475202530622482    0.1509826332330704    0.5617971420288086 Li
   0.2475579828023911    0.1512442827224731    0.0621146559715271 Li
   0.7475354671478271    0.6509170532226562    0.0618569478392601 Mn
   0.7497740983963013    0.0048427227884531    0.8221540451049805 F
   0.2465186715126038    0.8365631699562073    0.2837829887866974 F
   0.7456992268562317    0.2967838048934937    0.3008285760879516 F
   0.2491682022809982    0.4647462069988251    0.8402258753776550 F
