H9 F9
1.0
   6.5491805076599121    0.0000000000000000   -0.3661185204982750
   0.1016511507962597    3.6103701818651515   -0.3559511899948116
   0.0000000000000000    0.0000000000000000    8.0674867630004883
H F
9 9
direct
   0.0194300469011068    0.4067369401454926    0.1462606042623520 H
   0.3524557650089264    0.6233179569244386    0.9239051938056946 H
   0.6889036297798157    0.8503879904747010    0.7037780284881592 H
   0.0242223385721445    0.0724198967218399    0.4827749431133270 H
   0.6874575018882751    0.1866643726825714    0.3667857348918915 H
   0.6859354972839355    0.5170135498046876    0.0361239053308964 H
   0.0188682861626148    0.7398542761802674    0.8138194084167480 H
   0.3593690693378448    0.9599549174308778    0.5937635302543640 H
   0.3552301228046417    0.2963846325874329    0.2602528929710388 H
   0.5203334093093872    0.2402914017438889    0.3134221136569977 F
   0.1895340383052826    0.3504169285297394    0.2059683650732040 F
   0.8558414578437805    0.1274286210536957    0.4259755015373230 F
   0.8532814979553223    0.4614430665969849    0.0913450792431831 F
   0.5219522118568420    0.9060779809951783    0.6483227610588074 F
   0.1899342536926270    0.0174644850194454    0.5370398759841919 F
   0.5196501612663269    0.5727093815803529    0.9793540835380554 F
   0.8552095293998718    0.7960943579673768    0.7578189373016357 F
   0.1862811744213104    0.6839050650596620    0.8698143362998962 F
