Bi2 F6
1.0
   3.9363353252410893    0.0000000000000000   -1.3868576288223258
  -2.3442134254445799    5.6818802871665195   -0.4661069512367247
   0.0000000000000000    0.0000000000000000    6.1446132659912109
Bi F
2 6
direct
   0.4978936314582825    0.1041910946369171    0.7526996135711670 Bi
   0.4988795816898346    0.6045722365379333    0.2531988322734833 Bi
   0.8306671977043152    0.4374613165855408    0.0865116417407990 F
   0.1658106595277786    0.7717819809913634    0.4185847342014313 F
   0.4979064464569091    0.8548584580421447    0.0029112361371517 F
   0.4982737898826599    0.3550325334072113    0.5035665631294250 F
   0.1651786118745804    0.2705636322498322    0.9196573495864868 F
   0.8319339156150818    0.9396125078201293    0.5874834656715393 F
