Li2 Mn1 F4                              
   1.00000000000000     
     2.3989618739016598   -0.0081756323955280   -1.4033593017225681
    -0.5645487562371597    4.8746131299351081   -1.0063851780187452
     0.1373613336418100    0.0608475545868284    5.7398525927212987
   Li   Mn   F 
     2     1     4
Direct
  0.7176893184562051  0.5834957684960194  0.3865789969967602
  0.2184369437188396  0.0836400328532113  0.3868911576970142
  0.7159186794876806  0.5845461335250317  0.8862050713607580
  0.0051438761162221  0.3673079088167668  0.1742526324193861
  0.4277545572039899  0.8019364700054927  0.5979403350957192
  0.9823965834760251  0.3394628093846581  0.6513544048474752
  0.4503031337411972  0.8289791532168658  0.1206297719642427
 
  0.00000000E+00  0.00000000E+00  0.00000000E+00
  0.00000000E+00  0.00000000E+00  0.00000000E+00
  0.00000000E+00  0.00000000E+00  0.00000000E+00
  0.00000000E+00  0.00000000E+00  0.00000000E+00
  0.00000000E+00  0.00000000E+00  0.00000000E+00
  0.00000000E+00  0.00000000E+00  0.00000000E+00
  0.00000000E+00  0.00000000E+00  0.00000000E+00
