Li2 Mg1 Ti1 H3 F11                      
   1.00000000000000     
     5.5712766421321973   -0.0448888600602670   -0.3459648154885259
     0.1866983869055120    6.2008940966009032   -3.6824277851243497
     0.1144669767442528   -0.2804367319275322    7.2126017993678273
   Li   Mg   Ti   H    F 
     2     1     1     3    11
Direct
  0.0440966278597629  0.9489635776870111  0.1426707369586192
  0.3649538386175070  0.2930316455302911  0.8061066936521744
  0.3077472090766516  0.6832883387267646  0.4101780032136838
  0.8464125314765280  0.4797307447301593  0.6170770743414107
  0.8317781906204175  0.2486935705824788  0.8490172909566034
  0.3594617512360052  0.2338919419483466  0.1095245704638027
  0.3576367457106354  0.9836915805599146  0.8558403585595487
  0.6699905584196060  0.3493984810342395  0.7421861941449760
  0.3765129094318187  0.9716227711239963  0.6978566497665716
  0.0195368628032869  0.6083656097901403  0.4934293895993889
  0.8492566960079270  0.7463838036432472  0.8894464508819374
  0.3349645083562345  0.0421988814362095  0.0464926624647671
  0.3787952816653807  0.3928820097897046  0.1237535773073886
  0.5507779153971739  0.5619548755510715  0.5315760224523158
  0.9272211099893322  0.1852837680708095  0.9170679858979557
  0.1346425574561902  0.3985061288423757  0.6998557471219493
  0.2080732805186529  0.8215440968012661  0.2659270359169004
  0.8577334594285714  0.2088641333862110  0.3492921180816511
 
  0.00000000E+00  0.00000000E+00  0.00000000E+00
  0.00000000E+00  0.00000000E+00  0.00000000E+00
  0.00000000E+00  0.00000000E+00  0.00000000E+00
  0.00000000E+00  0.00000000E+00  0.00000000E+00
  0.00000000E+00  0.00000000E+00  0.00000000E+00
  0.00000000E+00  0.00000000E+00  0.00000000E+00
  0.00000000E+00  0.00000000E+00  0.00000000E+00
  0.00000000E+00  0.00000000E+00  0.00000000E+00
  0.00000000E+00  0.00000000E+00  0.00000000E+00
  0.00000000E+00  0.00000000E+00  0.00000000E+00
  0.00000000E+00  0.00000000E+00  0.00000000E+00
  0.00000000E+00  0.00000000E+00  0.00000000E+00
  0.00000000E+00  0.00000000E+00  0.00000000E+00
  0.00000000E+00  0.00000000E+00  0.00000000E+00
  0.00000000E+00  0.00000000E+00  0.00000000E+00
  0.00000000E+00  0.00000000E+00  0.00000000E+00
  0.00000000E+00  0.00000000E+00  0.00000000E+00
  0.00000000E+00  0.00000000E+00  0.00000000E+00
