Cs3 Si1 O2 F3
1.0
   6.1575560569763192    0.0000000000000000    0.0154013456776740
   0.0095661085874022    5.7776653251554810   -0.3239521384239188
   0.0000000000000000    0.0000000000000000    5.8288979530334473
Cs Si O F
3 1 2 3
direct
   0.1300909668207169    0.1219219267368317    0.9348394870758057 Cs
   0.6307469010353088    0.1818636506795883    0.4842676520347595 Cs
   0.6295066475868225    0.6707478165626526    0.9945423603057861 Cs
   0.1317778229713440    0.6350129842758179    0.4489725530147552 Si
   0.3563729822635651    0.7231256365776063    0.5352504849433899 O
   0.9094001650810242    0.7255463004112244    0.5423874855041504 O
   0.6297007203102112    0.1711334288120270    0.9841833710670471 F
   0.1308670789003372    0.3381682932376862    0.4524105489253998 F
   0.1295311748981476    0.6404652595520021    0.1537146568298340 F
