Ga2 Bi1 F9
1.0
   6.5517940521240234    0.0000000000000000    0.3913595378398902
   3.2383636172893362    4.4829147378673007    0.5485984683036802
   0.0000000000000000    0.0000000000000000    6.2456889152526855
Ga Bi F
2 1 9
direct
   0.4903360605239869    0.5708810687065123    0.0380630493164062 Ga
   0.6785653233528137    0.2717722356319427    0.4727955460548401 Ga
   0.0846158564090729    0.4205031394958496    0.7547593712806702 Bi
   0.9281946420669555    0.8756896257400512    0.5901185870170593 F
   0.2430096119642258    0.9627441763877868    0.9190959930419922 F
   0.7454152107238770    0.6367092132568358    0.9805139899253844 F
   0.2530297935009003    0.4820219576358795    0.0370359458029270 F
   0.5840991139411926    0.4192986190319061    0.7549814581871033 F
   0.9183443784713744    0.3595445454120636    0.4737710356712341 F
   0.4253200292587280    0.2038357257843018    0.5246755480766296 F
   0.4304066002368926    0.6688279509544373    0.3329869508743286 F
   0.7400135397911072    0.1769288480281830    0.1769908070564270 F
