F  Sn Sr
 1.0000000000000000
     5.8967260653093678    0.0000000000000000    0.0000000000000000
    -0.0088174807266200    5.8959088704800005    0.0000000000000000
    -0.0057531705270716   -0.0052729205113122    5.9090109789851208
 F   Sn  Sr 
   8   1   3
Cartesian
  5.7080685390123111  4.6593964066047651  2.6636356418342984
  2.7962180771734286  1.7449819658685075  2.6642770062294834
  2.7907266913459678  1.7329888575961949  5.6374842024875251
  5.7157654152640367  1.7402962825598245  5.6478090774160554
  5.7192601506672611  1.7363757704304346  2.6670430442731883
  2.7827315501483572  4.6641730414951867  5.6455215091861106
  2.7844785295481906  4.6729702077173592  2.6651365613126514
  5.7092101323358362  4.6671820068456107  5.6391342805717866
  1.3088949986331937  0.2525543378491084  4.1548909809020378
  4.2528614540066352  3.1963839994254921  4.1537896374293624
  4.2603618808396941  0.2541721747225528  1.2002873144049984
  1.3027396251407493  3.2038194977150982  1.2047998465149445
