Cs1 W3 O3 F13
1.0
   5.5470890998840341    0.0000000000000000   -0.2165380567312251
  -2.8294942994988883    4.9759859279897976   -0.0636557638645166
   0.0000000000000000    0.0000000000000000   13.3872985839843750
Cs W O F
1 3 3 13
direct
   0.1188831254839897    0.3386548757553101    0.2537950277328491 Cs
   0.4538120925426483    0.9927117824554443    0.4624876379966736 W
   0.4889037609100342    0.0055209021084011    0.0192997567355633 W
   0.4700521528720856    0.4911802411079407    0.8276355266571045 W
   0.4765183031558990    0.7451138496398926    0.9282088875770569 O
   0.4762903749942780    0.2484646886587143    0.9258342385292053 O
   0.5819239616394044    0.8090674877166749    0.4003271162509918 O
   0.1983112245798111    0.7106733918190002    0.5352116823196411 F
   0.5309075117111206    0.8051168322563170    0.1307214051485062 F
   0.1756152361631393    0.8970445394515991    0.3568925261497498 F
   0.5169392228126526    0.2582128942012787    0.1248406693339348 F
   0.0796242952346802    0.3033709228038788    0.8206949234008789 F
   0.4529931545257568    0.2508090138435364    0.7239096164703369 F
   0.8562022447586060    0.6809365749359131    0.8198288679122925 F
   0.2895391583442688    0.2002203017473221    0.5138834118843079 F
   0.8789936304092407    0.1993670016527176    0.0211003068834543 F
   0.1067260876297952    0.8165338635444642    0.0430966019630432 F
   0.7123651504516602    0.1281418055295944    0.5685669779777527 F
   0.6782650351524353    0.3095514178276062    0.3895809054374695 F
   0.4635752141475677    0.7207436561584473    0.7276931405067444 F
