K2 S1 O2 F2
1.0
   5.0719656944274902    0.0000000000000000   -0.5462026000022896
  -0.6266649948349097    5.2903639283451600   -0.4811608493328085
   0.0000000000000000    0.0000000000000000    5.3414845466613770
K S O F
2 1 2 2
direct
   0.5819349884986879    0.2430305927991867    0.9432625770568850 K
   0.5795951485633850    0.7483646869659424    0.4344702959060669 K
   0.0611129626631737    0.7194001674652100    0.9077082276344299 S
   0.0285851974040270    0.6592813730239868    0.1645491272211075 O
   0.0308388639241457    0.9779596328735353    0.8531062006950378 O
   0.4488865733146667    0.7296631336212158    0.9213698506355286 F
   0.5750172734260559    0.2500377297401429    0.4409666061401367 F
