Fe1 H2 F4
1.0
   2.8992578983306885    0.0000000000000000   -1.5891325473785396
  -2.4964777430365639    4.3117635136520942   -1.0840648412704463
   0.0000000000000000    0.0000000000000000    6.7313385009765625
Fe H F
1 2 4
direct
   0.2292277514934539    0.4714068174362182    0.0055519449524581 Fe
   0.7870926260948181    0.1388964504003525    0.2321581393480301 H
   0.6689085960388184    0.8017569780349730    0.7793440222740173 H
   0.5763967037200928    0.5494325160980225    0.8092589974403381 F
   0.7523663043975830    0.0115333730354905    0.7597488760948181 F
   0.8793912529945374    0.3923117518424988    0.2000951617956161 F
   0.7072405219078063    0.9302086234092711    0.2520379424095153 F
