Li2 Ni4 F10
1.0
   5.0253562927246103    0.0000000000000000    1.5061502456665030
  -0.7796722251715245    5.1006212088956184    1.7926352024078367
   0.0000000000000000    0.0000000000000000    7.4348993301391602
Li Ni F
2 4 10
direct
   0.2340147495269775    0.2363034337759018    0.7664241790771484 Li
   0.1170914545655251    0.4828543663024902    0.3637872040271759 Li
   0.6664731502532959    0.9582657814025880    0.8480939269065857 Ni
   0.1751626729965210    0.8598867058753967    0.5649334788322449 Ni
   0.6839290857315063    0.7608063220977783    0.2819518744945526 Ni
   0.6754410266876221    0.3596177697181702    0.0649036094546318 Ni
   0.3968632817268372    0.9387612342834473    0.7205705642700195 F
   0.8740124106407166    0.4675253331661224    0.2229849696159363 F
   0.9858242869377136    0.1623878180980682    0.6012958884239197 F
   0.4617228806018829    0.6539078950881958    0.1247791200876236 F
   0.3640072345733643    0.5568899512290955    0.5287855863571167 F
   0.8806903362274170    0.6594111323356628    0.8189874887466431 F
   0.8895410299301147    0.0648151859641075    0.0057950019836426 F
   0.9534395933151245    0.7799270153045654    0.4091948568820953 F
   0.4771428704261780    0.2508362531661987    0.9081714749336243 F
   0.4705261290073395    0.0604487657546997    0.3113899230957031 F
