Ba1 Ta1 F7
1.0
   5.3557696342468262    0.0000000000000000   -0.5361780524253844
   0.4360209484053364    5.3741367590121571   -0.5395834445953376
   0.0000000000000000    0.0000000000000000    5.4648103713989258
Ba Ta F
1 1 7
direct
   0.6533980965614319    0.9284541010856628    0.3457632660865784 Ba
   0.1818896532058716    0.4561315178871155    0.8148706555366516 Ta
   0.9360792040824890    0.6492673754692078    0.6164542436599731 F
   0.3128377795219421    0.2146798372268677    0.0549710281193256 F
   0.3811471164226532    0.6522983312606812    0.0588492006063461 F
   0.9373454451560974    0.2139075994491577    0.6946055293083191 F
   0.3757500350475311    0.6495522260665894    0.6192143559455872 F
   0.3748785555362701    0.2107205390930176    0.6166514754295349 F
   0.9418540000915527    0.5881120562553406    0.0555543377995491 F
