Pr2 Y1 O4 F2                            
   1.00000000000000     
     3.8396433665689891   -0.0002144422504705   -1.1454660191327939
    -0.6669840475774950    5.0314006747836286   -2.2346901436820401
    -0.0314527598350600    0.0452731061409339    6.9059185859507828
   Pr   Y    O    F 
     2     1     4     2
Direct
  0.6843533654393413  0.4687136624806887  0.8527479961867469
  0.3597184295312596  0.0805353903666205  0.2032451877950198
  0.0222571584741270  0.7747227382646207  0.5282129941149697
  0.1821248150377571  0.7013252040725780  0.8483507609158907
  0.5122986402996490  0.5299788388684401  0.5082768608197606
  0.8618907862859575  0.8477601071080337  0.2079411414330162
  0.5317606777049019  0.0194602248877945  0.5477233693146762
  0.8514845120178270  0.3487262796548241  0.1871717314444091
  0.1924338219447908  0.1998458639164222  0.8682802964583677
 
  0.00000000E+00  0.00000000E+00  0.00000000E+00
  0.00000000E+00  0.00000000E+00  0.00000000E+00
  0.00000000E+00  0.00000000E+00  0.00000000E+00
  0.00000000E+00  0.00000000E+00  0.00000000E+00
  0.00000000E+00  0.00000000E+00  0.00000000E+00
  0.00000000E+00  0.00000000E+00  0.00000000E+00
  0.00000000E+00  0.00000000E+00  0.00000000E+00
  0.00000000E+00  0.00000000E+00  0.00000000E+00
  0.00000000E+00  0.00000000E+00  0.00000000E+00
