Rb1 Y3 F10                              
   1.00000000000000     
     5.6721892509567171    0.0021536727280312   -0.0222338346975559
    -0.0147820110395221    6.4395633046345493    1.7797843016204864
     0.0007871661232866    0.0933045248879872    6.6786932856987171
   Rb   Y    F 
     1     3    10
Direct
  0.3997202695632112  0.6476082952125487  0.3872630544320875
  0.9007291335580322  0.1477384246484702  0.3866596232527081
  0.8995002401792679  0.6478793289898671  0.8863896855384823
  0.4002901379166028  0.1478803859920929  0.8865639019365731
  0.1429987660252465  0.4253538404699802  0.8197425601516306
  0.8728237681027596  0.8092341914989292  0.5477970693785933
  0.2011793078100654  0.1773527442749974  0.5773301803743101
  0.9256835185339642  0.4861104372060824  0.2247104818587346
  0.1975976817024835  0.8413003425919169  0.9141590242493197
  0.1429220684279270  0.0799880914445823  0.1639830433489407
  0.6007305686962247  0.4560144618381756  0.8563862356916101
  0.6600470856228243  0.2139631006829504  0.6109465219973595
  0.6559265352459126  0.8697548514256973  0.9541423333834536
  0.6016543331390803  0.1198340209971345  0.1940351487136007
 
  0.00000000E+00  0.00000000E+00  0.00000000E+00
  0.00000000E+00  0.00000000E+00  0.00000000E+00
  0.00000000E+00  0.00000000E+00  0.00000000E+00
  0.00000000E+00  0.00000000E+00  0.00000000E+00
  0.00000000E+00  0.00000000E+00  0.00000000E+00
  0.00000000E+00  0.00000000E+00  0.00000000E+00
  0.00000000E+00  0.00000000E+00  0.00000000E+00
  0.00000000E+00  0.00000000E+00  0.00000000E+00
  0.00000000E+00  0.00000000E+00  0.00000000E+00
  0.00000000E+00  0.00000000E+00  0.00000000E+00
  0.00000000E+00  0.00000000E+00  0.00000000E+00
  0.00000000E+00  0.00000000E+00  0.00000000E+00
  0.00000000E+00  0.00000000E+00  0.00000000E+00
  0.00000000E+00  0.00000000E+00  0.00000000E+00
