Li3 Mn2 F7                              
   1.00000000000000     
     4.7704375854705745   -0.0864932030529438   -0.9685797417994104
    -1.0982015512900347    5.2480785208680265   -0.1044953949014770
     0.2273042378076804   -0.0909073935673046    5.0161145922764732
   Li   Mn   F 
     3     2     7
Direct
  0.3452815376147117  0.7098095926020178  0.4637495327323174
  0.1173916511396603  0.0181499593367909  0.0798120924423953
  0.3945919545345283  0.1827273290848019  0.6815197399394625
  0.9864491890277980  0.4908628081177755  0.8532296017817337
  0.7170322311183505  0.3601248299810932  0.2447504839306520
  0.6391752582001554  0.5315783989841429  0.5799051904491623
  0.3370531657112102  0.3693849614160476  0.0170555421424459
  0.7780900631513100  0.1453262752399138  0.9303493247723725
  0.4699153588175591  0.0451111477281681  0.3485739944567466
  0.0571199764806029  0.3259019290160524  0.5140239363553658
  0.9733592991112842  0.6928684204958752  0.1958295084600637
  0.2028607246738876  0.8306516933927142  0.7676742603090456
 
  0.00000000E+00  0.00000000E+00  0.00000000E+00
  0.00000000E+00  0.00000000E+00  0.00000000E+00
  0.00000000E+00  0.00000000E+00  0.00000000E+00
  0.00000000E+00  0.00000000E+00  0.00000000E+00
  0.00000000E+00  0.00000000E+00  0.00000000E+00
  0.00000000E+00  0.00000000E+00  0.00000000E+00
  0.00000000E+00  0.00000000E+00  0.00000000E+00
  0.00000000E+00  0.00000000E+00  0.00000000E+00
  0.00000000E+00  0.00000000E+00  0.00000000E+00
  0.00000000E+00  0.00000000E+00  0.00000000E+00
  0.00000000E+00  0.00000000E+00  0.00000000E+00
  0.00000000E+00  0.00000000E+00  0.00000000E+00
