Zr1 Zn2 F8
1.0
   5.3445072174072266    0.0000000000000000    1.3968467712402350
  -1.2819410985498436    5.0286492278356745   -1.6018848419189449
   0.0000000000000000    0.0000000000000000    5.5410141944885254
Zr Zn F
1 2 8
direct
   0.8170512914657593    0.3318540155887604    0.8196542263031006 Zr
   0.4983180165290833    0.7062304615974427    0.4990136623382568 Zn
   0.1890078932046890    0.0597528405487537    0.1905183792114258 Zn
   0.0003801584243774    0.7000467181205750    0.0030295662581921 F
   0.8466739058494568    0.0019517978653312    0.4830526411533356 F
   0.5389664173126221    0.4108286798000336    0.1634310185909272 F
   0.4802876710891724    0.0027245283126831    0.8431288003921509 F
   0.3567481935024262    0.9024773836135865    0.3507817685604096 F
   0.0051744920201600    0.1996570229530335    0.0088592655956745 F
   0.6498320698738098    0.5077532529830934    0.6567823290824890 F
   0.1594847887754440    0.4154293239116669    0.5432711839675903 F
