K2 S2 O3 F4
1.0
   5.9131970405578613    0.0000000000000000   -0.0806763470172879
  -3.0823351326020552    4.4195632512432983   -2.3011796474456778
   0.0000000000000000    0.0000000000000000    7.6935973167419434
K S O F
2 2 3 4
direct
   0.3681540191173553    0.4534116685390472    0.7516626119613646 K
   0.8703396320343018    0.4772801697254181    0.2761451303958892 K
   0.1071824207901955    0.0061854124069214    0.0893441736698150 S
   0.6109865307807922    0.9292004704475403    0.5127035379409790 S
   0.3786567449569702    0.8744952678680420    0.5884325504302977 O
   0.8569393157958984    0.9535336494445801    0.0475929193198681 O
   0.7902389168739319    0.8738590478897095    0.5839217901229857 O
   0.1303744912147522    0.7296200990676880    0.0191232506185770 F
   0.7965816259384155    0.2959756255149841    0.5778166651725768 F
   0.2421344220638275    0.1515220850706100    0.3142452836036682 F
   0.3487959504127502    0.2382270991802216    0.0411058142781257 F
