Na1 P1 F6                               
   1.00000000000000     
     4.7594575033514532    0.0010592997203882    0.0503212673836731
    -0.0368659727054593    4.3644962208856564    2.5915628079466777
    -0.0084576734913988   -0.0123264197276454    5.0978835306077226
   Na   P    F 
     1     1     6
Direct
  0.8410531054318803  0.0914855490905982  0.1348489470916836
  0.3414657867743818  0.7607468926406410  0.8017550751984187
  0.1407842319968830  0.4942840501527832  0.0672888752054708
  0.5400650390119052  0.4969743039217113  0.8023315950458567
  0.5397431313427836  0.7602864246750671  0.0632951630284320
  0.1426560603877143  0.0236145468622260  0.8022729579744691
  0.5417524692995964  0.0266168131088690  0.5358035419261385
  0.1433603170130954  0.7626094277146558  0.5392325048984502
 
  0.00000000E+00  0.00000000E+00  0.00000000E+00
  0.00000000E+00  0.00000000E+00  0.00000000E+00
  0.00000000E+00  0.00000000E+00  0.00000000E+00
  0.00000000E+00  0.00000000E+00  0.00000000E+00
  0.00000000E+00  0.00000000E+00  0.00000000E+00
  0.00000000E+00  0.00000000E+00  0.00000000E+00
  0.00000000E+00  0.00000000E+00  0.00000000E+00
  0.00000000E+00  0.00000000E+00  0.00000000E+00
