K1 Rb1 Ti1 F6                           
   1.00000000000000     
     5.6309936228086288    0.0005831241204061   -3.2487308098613519
     1.8809511212761998    5.3208320493624779   -3.2463771997750759
    -0.0013709320599946   -0.0008500373348712    6.5080175817658912
   K    Rb   Ti   F 
     1     1     1     6
Direct
  0.5875318178813176  0.1929003827024413  0.1002134740895304
  0.3379828679751213  0.9424610404977960  0.3507607194368085
  0.8377675937778496  0.4429248853569200  0.8508155081612675
  0.0433075580189188  0.2371633940452589  0.0563878271976301
  0.6320520654572989  0.6482879143588716  0.0563117415572717
  0.0435031548573714  0.6483153197844861  0.0565258387901977
  0.0438690382324290  0.2376197472516919  0.6459002690782804
  0.6323637778853768  0.6488162569783436  0.6457367052517610
  0.6316161571051887  0.2379593469880580  0.6453929885457599
 
  0.00000000E+00  0.00000000E+00  0.00000000E+00
  0.00000000E+00  0.00000000E+00  0.00000000E+00
  0.00000000E+00  0.00000000E+00  0.00000000E+00
  0.00000000E+00  0.00000000E+00  0.00000000E+00
  0.00000000E+00  0.00000000E+00  0.00000000E+00
  0.00000000E+00  0.00000000E+00  0.00000000E+00
  0.00000000E+00  0.00000000E+00  0.00000000E+00
  0.00000000E+00  0.00000000E+00  0.00000000E+00
  0.00000000E+00  0.00000000E+00  0.00000000E+00
