Na2 Ti1 H3 O1 F7
1.0
   5.5622053146362305    0.0000000000000000   -0.5845707058906550
  -0.1591076410175696    5.5582624497668744   -0.6161985397338858
   0.0000000000000000    0.0000000000000000    5.3017210960388184
Na Ti H O F
2 1 3 1 7
direct
   0.9358286857604980    0.8588383197784424    0.2685975432395935 Na
   0.4283297061920166    0.3684532344341278    0.2689374983310699 Na
   0.4349073171615601    0.8656369447708130    0.7656295299530029 Ti
   0.7622237205505371    0.1929728984832764    0.6623796224594116 H
   0.9385464787483215    0.3699522614479064    0.0126248914748430 H
   0.0906716883182526    0.5211242437362671    0.8579877018928528 H
   0.0577226616442204    0.4899619221687317    0.0377336926758289 O
   0.2320148348808289    0.9975157976150512    0.0050066709518433 F
   0.5625377893447876    0.6670405864715576    0.0073496853001416 F
   0.6876195669174194    0.1219972074031830    0.9059124588966370 F
   0.1946318745613098    0.6241140961647033    0.6096877455711365 F
   0.6438813209533691    0.7337127923965453    0.5349841117858887 F
   0.3073090612888336    0.0694786906242371    0.5313039422035217 F
   0.7984227538108826    0.2279909104108810    0.4879251122474670 F
