Rb2 S2 O6 F2                            
   1.00000000000000     
     5.1677845556442836    0.0138294186569814   -1.9541750974629939
    -0.0129803819272266    5.5394708888338586    0.0470072263076113
    -0.0463985893379189   -0.0158879090465907    7.7312471929502005
   Rb   S    O    F 
     2     2     6     2
Direct
  0.7983059032464431  0.5634568948961172  0.8815615122999492
  0.0361918066676566  0.0603345020957755  0.3568732800963499
  0.5308922904842426  0.5821468496331251  0.3467470441940624
  0.3038662426387251  0.0866023113380104  0.8926809834379299
  0.2371859261668403  0.2835277220648821  0.7584546954207587
  0.7033319691625545  0.5520710698499213  0.2444912821800667
  0.1316241378336228  0.0537362481766155  0.9950360741982055
  0.5788474594099252  0.0544031561847108  0.9956777902523367
  0.2559361950671858  0.5508350287816889  0.2434240748252575
  0.5977552236614629  0.7771057318151081  0.4810414139165458
  0.5990713505751594  0.3376677346382967  0.4831836985948836
  0.2349258158042318  0.8441103768601765  0.7565324414505061
 
  0.00000000E+00  0.00000000E+00  0.00000000E+00
  0.00000000E+00  0.00000000E+00  0.00000000E+00
  0.00000000E+00  0.00000000E+00  0.00000000E+00
  0.00000000E+00  0.00000000E+00  0.00000000E+00
  0.00000000E+00  0.00000000E+00  0.00000000E+00
  0.00000000E+00  0.00000000E+00  0.00000000E+00
  0.00000000E+00  0.00000000E+00  0.00000000E+00
  0.00000000E+00  0.00000000E+00  0.00000000E+00
  0.00000000E+00  0.00000000E+00  0.00000000E+00
  0.00000000E+00  0.00000000E+00  0.00000000E+00
  0.00000000E+00  0.00000000E+00  0.00000000E+00
  0.00000000E+00  0.00000000E+00  0.00000000E+00
