Na2 Mg2 F6                              
   1.00000000000000     
     3.2454487761837965   -0.0141394520997401    0.0299037110149451
    -0.0472411769287178    5.3137776867556452    0.0041741773818281
     0.0068327052187059    0.0251728383625629    7.4016487958010542
   Na   Mg   F 
     2     2     6
Direct
  0.5793819100959995  0.9057225590552739  0.7653660705104369
  0.5554614344591667  0.9990304229080339  0.2750498736463550
  0.0747712218203875  0.4496072760266747  0.5237865002703317
  0.0667089096487550  0.4485138607489149  0.0208574790699885
  0.0615393115714476  0.3083603704290488  0.2723190867503578
  0.5709967382589815  0.6829491620311978  0.0731768251456506
  0.0874085724027706  0.1038869234650908  0.5933766943499449
  0.0742770742813449  0.5846405888339811  0.7718148723523793
  0.5798397987341380  0.6355493182442569  0.4747358785961341
  0.5639594333648221  0.2192487405861904  0.9744137142121048
 
  0.00000000E+00  0.00000000E+00  0.00000000E+00
  0.00000000E+00  0.00000000E+00  0.00000000E+00
  0.00000000E+00  0.00000000E+00  0.00000000E+00
  0.00000000E+00  0.00000000E+00  0.00000000E+00
  0.00000000E+00  0.00000000E+00  0.00000000E+00
  0.00000000E+00  0.00000000E+00  0.00000000E+00
  0.00000000E+00  0.00000000E+00  0.00000000E+00
  0.00000000E+00  0.00000000E+00  0.00000000E+00
  0.00000000E+00  0.00000000E+00  0.00000000E+00
  0.00000000E+00  0.00000000E+00  0.00000000E+00
