K1 H3 F4                                
   1.00000000000000     
     4.0479079252906693   -0.0855792566275656   -0.2631021775153015
    -1.6447904788784129    4.8491956492070223   -2.3069913745244679
    -0.0299045098962247   -0.1942719774186780    6.6831801173323804
   K    H    F 
     1     3     4
Direct
  0.2113163366006568  0.9655454706402181  0.5238470907605718
  0.0008061128621874  0.5253884713605222  0.7823521854927359
  0.4273590005360991  0.4101782345369029  0.2621088349490977
  0.2156793621115974  0.9684417639328677  0.0266653636408034
  0.1735339847486574  0.8017562270109277  0.8410232382201800
  0.8760158833073489  0.3174285259886806  0.7280322047628411
  0.2575891380417049  0.1359376424830845  0.2115753556620183
  0.5489914055561680  0.6162285167947128  0.3084314524033414
 
  0.00000000E+00  0.00000000E+00  0.00000000E+00
  0.00000000E+00  0.00000000E+00  0.00000000E+00
  0.00000000E+00  0.00000000E+00  0.00000000E+00
  0.00000000E+00  0.00000000E+00  0.00000000E+00
  0.00000000E+00  0.00000000E+00  0.00000000E+00
  0.00000000E+00  0.00000000E+00  0.00000000E+00
  0.00000000E+00  0.00000000E+00  0.00000000E+00
  0.00000000E+00  0.00000000E+00  0.00000000E+00
