Na1 H1 F2                               
   1.00000000000000     
     3.4938805238429902    0.0010784467553961   -0.0072271695360370
     1.7484257807156447    2.7664640508397174    1.1911709793053744
    -0.0015944493945016    0.0051321318153583    5.0836315944137542
   Na   H    F 
     1     1     2
Direct
  0.7294279079729362  0.3121403142038925  0.2031042128814474
  0.2287813199199385  0.3129742842142890  0.7032825628589011
  0.3096633561290849  0.1503516979641696  0.9497153849463835
  0.1484835921159646  0.4747025486751363  0.4570131380612842
 
  0.00000000E+00  0.00000000E+00  0.00000000E+00
  0.00000000E+00  0.00000000E+00  0.00000000E+00
  0.00000000E+00  0.00000000E+00  0.00000000E+00
  0.00000000E+00  0.00000000E+00  0.00000000E+00
