Tl1 H11 N3 F3
1.0
   4.5855059623718262    0.0000000000000000    0.1720939725637436
   0.0234490173384558    7.6833343310477034   -1.1444319486618033
   0.0000000000000000    0.0000000000000000    6.9548277854919434
Tl H N F
1 11 3 3
direct
   0.7756643891334534    0.8289412260055542    0.0621910989284515 Tl
   0.5666972994804382    0.3970664143562317    0.4721431136131287 H
   0.0665686428546906    0.3608325421810150    0.0136258387938142 H
   0.2722967565059662    0.2525657713413239    0.1651151627302170 H
   0.7693888545036316    0.5901929736137390    0.5569154620170593 H
   0.4583903849124908    0.9200541377067567    0.6707078814506531 H
   0.2692824602127075    0.1697461605072022    0.9154949188232422 H
   0.2773905992507935    0.0752663984894753    0.5775682330131531 H
   0.0918464511632919    0.9175447821617128    0.6731331348419189 H
   0.9625535011291504    0.3966370224952698    0.4705307185649872 H
   0.7703883051872253    0.5006303191184998    0.3085856139659882 H
   0.4537944197654724    0.3608217537403107    0.9920756816864014 H
   0.7660380601882935    0.4740970432758331    0.4527498185634613 N
   0.2715836465358734    0.9961083531379701    0.6864268779754639 N
   0.2653295397758484    0.2859053611755372    0.0226895194500685 N
   0.2669382095336914    0.2689726948738099    0.4419327080249786 F
   0.7731128931045532    0.7810268402099610    0.7271327972412109 F
   0.7735117673873901    0.5135084390640259    0.0570896491408348 F
