Rb2 Ti1 F5
1.0
   4.6265096664428711    0.0000000000000000   -0.0109716681763527
   0.0378239950951049    5.0753433361172222   -3.0216343402862562
   0.0000000000000000    0.0000000000000000    5.9548993110656738
Rb Ti F
2 1 5
direct
   0.1124008297920227    0.7885102033615113    0.0804326385259629 Rb
   0.6953799128532410    0.4326801002025604    0.4030570685863495 Rb
   0.4067408144474030    0.0974701941013336    0.7358452677726746 Ti
   0.6226463317871094    0.9332337379455566    0.4132773280143738 F
   0.1741127669811249    0.7976659536361694    0.5852748751640320 F
   0.1949181854724884    0.2844597995281220    0.5997189283370972 F
   0.6236468553543091    0.9331748485565186    0.8924121260643005 F
   0.1947233378887177    0.2847294509410858    0.0568123497068882 F
