Ca3 Sn1 F8                              
   1.00000000000000     
     5.6102178696218115    0.0014767906763528   -0.0047136692301314
    -0.0013893086494188    5.6117648744130024   -0.0061087831959714
     0.0023671439165634    0.0016855863607304    5.6169097501054033
   Ca   Sn   F 
     3     1     8
Direct
  0.0024795751931011  0.7152044546539007  0.7288832853168932
  0.5023435555313392  0.7147428084562277  0.2284444058082272
  0.0024461507296307  0.2151296317264508  0.2285769550127872
  0.5025059476533333  0.2147316818849785  0.7280941276140777
  0.7585920826243141  0.9582799830921552  0.4717820975864593
  0.2451718605977598  0.9583445155662434  0.4716644246515872
  0.2453437903010062  0.4716899996775086  0.9861065248443526
  0.2462400883739802  0.4717298552610016  0.4720757679746783
  0.7600053587727003  0.9576571915580556  0.9857790986260432
  0.7597015871200513  0.4721769627242503  0.4713468349100485
  0.7592002321293165  0.4717856920778626  0.9849229048397904
  0.2461063035893374  0.9580017320837246  0.9855523063546368
 
  0.00000000E+00  0.00000000E+00  0.00000000E+00
  0.00000000E+00  0.00000000E+00  0.00000000E+00
  0.00000000E+00  0.00000000E+00  0.00000000E+00
  0.00000000E+00  0.00000000E+00  0.00000000E+00
  0.00000000E+00  0.00000000E+00  0.00000000E+00
  0.00000000E+00  0.00000000E+00  0.00000000E+00
  0.00000000E+00  0.00000000E+00  0.00000000E+00
  0.00000000E+00  0.00000000E+00  0.00000000E+00
  0.00000000E+00  0.00000000E+00  0.00000000E+00
  0.00000000E+00  0.00000000E+00  0.00000000E+00
  0.00000000E+00  0.00000000E+00  0.00000000E+00
  0.00000000E+00  0.00000000E+00  0.00000000E+00
