Na2 Hf1 Mg1 F8
1.0
   5.1687812805175781    0.0000000000000000    0.0047368654049934
  -0.1978231954716136    5.1537402887195238    0.0040477905422457
   0.0000000000000000    0.0000000000000000    6.6492409706115723
Na Hf Mg F
2 1 1 8
direct
   0.6823289394378662    0.6741150617599487    0.1989998519420624 Na
   0.6840412616729736    0.6746280193328857    0.6700328588485718 Na
   0.1828544586896896    0.1739354431629181    0.9342166185379028 Hf
   0.1829239130020142    0.1734032332897186    0.4345014691352844 Mg
   0.3613559603691101    0.9967322349548339    0.1717079877853394 F
   0.4507786929607391    0.4428293406963348    0.4338340759277344 F
   0.0038778618909419    0.3511577844619750    0.1715085953474045 F
   0.0045273168943822    0.3506022393703460    0.6967698335647583 F
   0.4652577340602875    0.4571307897567749    0.9340251684188843 F
   0.9148554205894470    0.9045436382293701    0.4332364797592163 F
   0.3619133830070496    0.9964451193809509    0.6965962052345276 F
   0.9005897641181946    0.8907019495964049    0.9346171617507935 F
