F  H  Na
 1.0000000000000000
     3.4562150012196704    0.0000000000000000    0.0000000000000000
     1.4877864121618403    3.0851022910560384    0.0000000000000000
     1.1514758295862753    0.7193229809909625    6.9068343295812964
 F   H   Na 
   3   2   1
Cartesian
  2.7845164414367396  2.2404960453997083  3.2982858665072117
  2.5570631570524798  2.1469884988768744  5.5972953104913845
  3.0376938887322402  2.3900115137774249  0.9946466759148724
  2.9453971946218842  2.3209704188644822  2.0766354606028052
  2.6535663411732719  2.1992572764789600  4.4711207692386488
  4.3595755929097324  1.0799638295403833  6.7315498834601515
