Na2 Pr1 F5
1.0
   3.7884266376495366    0.0000000000000000   -0.0120502160862082
  -1.9292861063821505    5.8598289188991295   -3.0467672348022456
   0.0000000000000000    0.0000000000000000    5.5143523216247559
Na Pr F
2 1 5
direct
   0.9111781120300292    0.8109990954399108    0.2541147768497467 Na
   0.5632743835449219    0.1158696040511131    0.8503168821334838 Na
   0.2239235639572143    0.4362485408782958    0.4881343245506286 Pr
   0.7215178012847900    0.4347360730171204    0.2346687167882919 F
   0.7913396954536438    0.5680533647537231    0.7797828912734985 F
   0.0976765230298042    0.1813095211982727    0.6575425863265991 F
   0.3962965011596680    0.7813358306884766    0.4671211242675781 F
   0.0418628640472889    0.0809704139828682    0.1085781604051590 F
