F  K  Nd
 1.0000000000000000
     3.8371496577788746    0.0000000000000000    0.0000000000000000
     0.0038315565156848    6.5146733234111052    0.0000000000000000
    -1.9167858243343725   -3.2406485407095049    6.0201190666886113
 F   K   Nd 
   7   1   2
Cartesian
  2.7036520707567120  4.1600382052972220  1.0816775294739056
  0.7876391723099860 -0.5094687858377955  1.0824307971764107
  0.7890110639715973  2.3211638428009236  1.0820099827435834
  2.7068392641548540  2.7596168943267272  3.2131097185779711
  0.7856367486106292 -2.3492468500265922  5.1560624333983576
  0.7901175223138502  0.9029855353251149  3.2070290352450450
  2.7035438863730157 -0.9431772788003269  3.2043428558852969
 -1.1319255561987223  0.9107615254500312  5.1622371294206042
  2.7041101744502742  0.9064729566144706  1.5317846298062054
  0.7919548626088824  4.1649625016025009  2.7641944623203987
