Cs F  Ga Rb
 1.0000000000000000
     4.0568081084986511    0.0000000000000000    0.0000000000000000
     0.0053441083887728    6.5057835798199806    0.0000000000000000
    -2.0494617325393274   -3.2674681865982960    5.9231046193726451
 Cs  F   Ga  Rb 
   1   5   1   1
Cartesian
 -1.4252964199010749  1.6570722300482941  4.6284920314607776
  0.5982534641764896 -0.2995198416111168  5.2056940932353326
  0.6144783729343727  1.6545408441986305  0.6737867532336032
  2.6414020596824805  3.0349415851873816  1.9814093857397881
  0.5997162911454452  3.5857267348155353  5.2076842053456733
  2.6388385723247296  0.2761709405126980  2.0013338077832858
  2.6424933648774602  1.6544431484602866  0.6616342979740434
  0.6145580815668551  4.9067711910193426  2.6480436329773926
