Ba2 Br1 F3
1.0
   4.4790124893188477    0.0000000000000000    0.0130669521167882
   0.0155596347293825    4.4899766255964524    0.0152330808341506
   0.0000000000000000    0.0000000000000000    7.5140500068664551
Ba Br F
2 1 3
direct
   0.1362953782081604    0.8300603032112120    0.2514194846153259 Ba
   0.6364988684654236    0.3302029967308044    0.8607802987098694 Ba
   0.1370305418968201    0.8305178880691528    0.7059596776962280 Br
   0.6360498070716858    0.3301749825477600    0.4056348800659180 F
   0.1368964761495590    0.3302282989025115    0.0578455552458763 F
   0.6365842223167419    0.8294694423675537    0.0578463748097420 F
