H3 Se1 F7
1.0
   4.6513457298278809    0.0000000000000000   -1.4183578491210938
   0.7567746472304855    4.7540604284107193   -0.7013059258460995
   0.0000000000000000    0.0000000000000000    6.8357987403869629
H Se F
3 1 7
direct
   0.3505428135395050    0.7157670259475708    0.5594984292984009 H
   0.0619287490844727    0.4174930751323700    0.4690151810646057 H
   0.4609791934490204    0.9000801444053649    0.3606343567371368 H
   0.9841569066047668    0.1527343392372131    0.0715688169002533 Se
   0.4139122962951660    0.9403011202812195    0.1864082813262939 F
   0.4963667988777161    0.8670649528503418    0.5313792824745178 F
   0.6255148053169250    0.3271768391132354    0.9635880589485168 F
   0.1263484954833984    0.4657273590564728    0.1191217601299286 F
   0.9203689694404602    0.2660888731479644    0.3700406253337860 F
   0.0481721982359886    0.0878282636404037    0.8240436315536499 F
   0.2005260139703751    0.5840582847595215    0.5844443440437317 F
