Li4 Mn1 F6                              
   1.00000000000000     
     3.8164593378849165    0.0012804954891113    0.0104310510090901
     1.9001776248164961    4.9972323461765340    0.4922906820652159
    -0.0224912613093948   -0.1271824000613956    6.3553304986239159
   Li   Mn   F 
     4     1     6
Direct
  0.7178720674000765  0.9689361187997028  0.2849338707994161
  0.2005899903880334  0.0027758816258219  0.9512130310901427
  0.9652766169057623  0.4746532909684090  0.1197444743291416
  0.0834661808511983  0.2356643516906812  0.5338644875111475
  0.8334267193592295  0.7340411197921537  0.6931080322238936
  0.7780478215225608  0.8477217694416659 -0.0010844270414511
  0.6469308520584041  0.1085821531142047  0.5502661849264713
  0.9007424449914397  0.6023377749842729  0.3978646224634813
  0.0218448164398009  0.3589437273934182  0.8348809581407786
  0.1446081507705615  0.1144848183132557  0.2305121255075001
  0.3164735471981985  0.7670906031743303  0.7132785706346831
 
  0.00000000E+00  0.00000000E+00  0.00000000E+00
  0.00000000E+00  0.00000000E+00  0.00000000E+00
  0.00000000E+00  0.00000000E+00  0.00000000E+00
  0.00000000E+00  0.00000000E+00  0.00000000E+00
  0.00000000E+00  0.00000000E+00  0.00000000E+00
  0.00000000E+00  0.00000000E+00  0.00000000E+00
  0.00000000E+00  0.00000000E+00  0.00000000E+00
  0.00000000E+00  0.00000000E+00  0.00000000E+00
  0.00000000E+00  0.00000000E+00  0.00000000E+00
  0.00000000E+00  0.00000000E+00  0.00000000E+00
  0.00000000E+00  0.00000000E+00  0.00000000E+00
