Cs5 K2 Nd1 F10
1.0
   6.9292626380920410    0.0000000000000000   -0.3190368115901955
   0.0867397613818919    8.2071365157899727   -1.6381127834320059
   0.0000000000000000    0.0000000000000000    8.5705108642578125
Cs K Nd F
5 2 1 10
direct
   0.7038007974624634    0.7614137530326843    0.2033228725194931 Cs
   0.6966182589530945    0.3489779233932495    0.4407954216003418 Cs
   0.2083397209644318    0.2001384794712067    0.0461888350546360 Cs
   0.7011251449584961    0.8992601633071899    0.6859221458435059 Cs
   0.1718322336673737    0.6002283692359924    0.7855816483497620 Cs
   0.6965928077697754    0.4003199934959412    0.9073307514190674 K
   0.2023573070764542    0.5925888419151306    0.3268477916717529 K
   0.1846163123846054    0.0968337878584862    0.5603908300399780 Nd
   0.2562753856182098    0.3056066632270813    0.4320834875106812 F
   0.8938205242156982    0.6422622799873352    0.4831446707248688 F
   0.5003624558448792    0.4417506456375122    0.1639771759510040 F
   0.3768363595008850    0.8935073614120483    0.4232107400894165 F
   0.9717651009559631    0.2668804526329041    0.7133872509002686 F
   0.9286380410194397    0.0376833379268646    0.3820553719997406 F
   0.0064861513674259    0.5143067836761473    0.0675296410918236 F
   0.1373681277036667    0.9410856366157532    0.7466700077056885 F
   0.5838646888732910    0.6731826066970825    0.8567347526550293 F
   0.4317213892936707    0.2068299651145935    0.7364722490310669 F
