Li6 Fe2 F12
1.0
   5.0014953613281250    0.0000000000000000    0.1646768897771838
  -0.7474746787420368    5.0345895587524412   -0.3829696178436289
   0.0000000000000000    0.0000000000000000    8.3204984664916992
Li Fe F
6 2 12
direct
   0.9715651869773865    0.7541386485099792    0.8252310156822205 Li
   0.4468146860599518    0.7936843633651733    0.0177606418728828 Li
   0.9007464647293091    0.2463458776473999    0.5183497667312622 Li
   0.9811916351318359    0.2955399155616760    0.1082647517323494 Li
   0.4643255770206451    0.3058845400810242    0.3065276741981506 Li
   0.6175620555877686    0.7177807688713074    0.5889192223548889 Li
   0.5137436985969543    0.2788468897342682    0.8855012655258179 Fe
   0.1576725989580154    0.7741825580596924    0.3946634829044342 Fe
   0.8079140186309814    0.5321012735366821    0.3793950974941254 F
   0.2781953811645508    0.4965164959430695    0.5071713924407959 F
   0.5129022598266602    0.9879741072654724    0.4399733245372772 F
   0.1691784709692001    0.0555068552494049    0.9487088918685913 F
   0.6066546440124512    0.1405577212572098    0.1020561307668686 F
   0.6102901101112366    0.9470184445381165    0.7961235642433167 F
   0.0087112691253424    0.9204483032226561    0.5933791995048523 F
   0.7295052409172058    0.4282962679862976    0.6984691619873047 F
   0.0770921111106873    0.0780925750732422    0.2927829027175903 F
   0.2617183923721313    0.5249128341674805    0.8634222149848938 F
   0.7494066357612610    0.5739740133285522    0.9968296885490420 F
   0.2694755196571350    0.5892815589904785    0.1958682090044022 F
