Li2 B2 F8
1.0
   4.9035658836364746    0.0000000000000000    0.0110454726964224
  -0.0584530794204326    4.9391048640858290    0.0295546110719451
   0.0000000000000000    0.0000000000000000    7.6119279861450195
Li B F
2 2 8
direct
   0.1649451255798340    0.6616090536117554    0.4000804126262664 Li
   0.6634341478347778    0.1657795906066895    0.9001730680465697 Li
   0.1641685962677002    0.6660840511322021    0.9011604785919188 B
   0.6633835434913635    0.1613290011882782    0.3993667662143707 B
   0.4403905272483826    0.9396842718124390    0.3996440172195434 F
   0.8877491950988770    0.9396206140518188    0.3997436463832855 F
   0.9397386312484741    0.8894171118736268    0.9011390805244445 F
   0.3882168531417847    0.4408676326274872    0.9008172154426574 F
   0.8866538405418396    0.3851751089096069    0.3993659913539886 F
   0.4418904185295105    0.3852231800556183    0.3991652727127075 F
   0.9402703046798706    0.4426759481430054    0.9008429050445556 F
   0.3880873918533325    0.8898724317550659    0.9012588858604431 F
