Mg1 S2 O6 F2                            
   1.00000000000000     
     5.1953288472936610    0.0651830864957687    0.0382616944236273
    -2.6601289616132551    4.4649159760083919    0.1211544000320171
     0.0008483973198252   -0.1194318151094019    7.0815196387087829
   Mg   S    O    F 
     1     2     6     2
Direct
  0.5858920741405184  0.7845087401378595  0.1782357109515628
  0.2604517856786656  0.1239369883475682  0.9606649772771777
  0.9103751669620900  0.4446071770537082  0.3957044429558665
  0.2109207473367937  0.6706179376958608  0.3434346981653666
  0.8349169251524693  0.1423652378815603  0.3532074122465676
 -0.0407815830464060 -0.1023873508211488  0.0113317847663259
  0.6828400688841407  0.5176181111838805  0.3485314445751347
  0.3353305634237317  0.4252622620832072  0.0048004558685054
  0.4872816792005885  0.0498921435007900  0.0075105089614513
  0.2598610753835444  0.1229096737312571  0.7370647481022113
  0.9131465277212213  0.4495448763542513  0.6192370596196929
 
  0.00000000E+00  0.00000000E+00  0.00000000E+00
  0.00000000E+00  0.00000000E+00  0.00000000E+00
  0.00000000E+00  0.00000000E+00  0.00000000E+00
  0.00000000E+00  0.00000000E+00  0.00000000E+00
  0.00000000E+00  0.00000000E+00  0.00000000E+00
  0.00000000E+00  0.00000000E+00  0.00000000E+00
  0.00000000E+00  0.00000000E+00  0.00000000E+00
  0.00000000E+00  0.00000000E+00  0.00000000E+00
  0.00000000E+00  0.00000000E+00  0.00000000E+00
  0.00000000E+00  0.00000000E+00  0.00000000E+00
  0.00000000E+00  0.00000000E+00  0.00000000E+00
