K3 C1 O3 F1
1.0
   5.0351700782775879    0.0000000000000000    0.0085309855639939
   0.0175090717824252    5.3475989758061351    0.0226109232753513
   0.0000000000000000    0.0000000000000000    5.5168294906616211
K C O F
3 1 3 1
direct
   0.4670221805572510    0.5777845978736877    0.5254400372505188 K
   0.9676035046577454    0.4847316443920135    0.0247373990714550 K
   0.4698633849620819    0.0044476985931396    0.0260817706584930 K
   0.9684056639671326    0.0622811205685139    0.5263510346412659 C
   0.9679709076881409    0.9407436251640319    0.7342531085014343 O
   0.9684606790542603    0.3149000406265259    0.5239073038101196 O
   0.9705714583396912    0.9394772648811340    0.3174643814563751 O
   0.4688655138015747    0.5089591145515442    0.0254384893923998 F
