Rb3 Dy1 F6
1.0
   6.1256632804870605    0.0000000000000000    1.1311224699020392
   0.0664995972644275    5.9710228150818132   -0.0251506231725210
   0.0000000000000000    0.0000000000000000    6.2551660537719727
Rb Dy F
3 1 6
direct
   0.7606784105300903    0.1732233464717865    0.0004973411560059 Rb
   0.7609609961509705    0.6730105280876160    0.5002132654190063 Rb
   0.2601664662361145    0.1728620529174805    0.5001007318496704 Rb
   0.2613765299320221    0.6734945178031921    0.0004008116666227 Dy
   0.4579304754734039    0.9180577993392944    0.8051007986068726 F
   0.4623892605304718    0.4295551180839539    0.7993699908256531 F
   0.0369287356734276    0.6746384501457214    0.7751213908195496 F
   0.0634723752737045    0.4278320372104645    0.1960127502679825 F
   0.0591478236019611    0.9172394871711731    0.2014268636703491 F
   0.4842359423637390    0.6722952723503113    0.2252667993307114 F
