Li2 Si1 H7 O3 F7
1.0
   5.4412231445312500    0.0000000000000000   -0.6511037945747377
  -0.6535674978219664    6.2633142446973320   -1.3917096853256212
   0.0000000000000000    0.0000000000000000    5.5032491683959961
Li Si H O F
2 1 7 3 7
direct
   0.1749667525291443    0.7363191246986388    0.4710206985473633 Li
   0.4248237609863281    0.0718017295002937    0.1940015554428101 Li
   0.4395785331726074    0.5431787371635437    0.9475255012512207 Si
   0.8048970103263855    0.3112645745277405    0.5166501402854919 H
   0.7658104300498962    0.3774218559265137    0.2641717493534088 H
   0.8237023949623108    0.7186433672904968    0.6991093158721924 H
   0.6132281422615051    0.9298371672630310    0.5627996921539307 H
   0.4253782033920288    0.0817039981484413    0.6633184552192688 H
   0.9456121921539307    0.1386203616857529    0.2420037686824799 H
   0.9654635787010193    0.9305337071418761    0.8450537323951721 H
   0.7885367274284363    0.2469097226858139    0.3355858623981476 O
   0.9051639437675476    0.8507041931152344    0.6670185327529907 O
   0.4459232091903687    0.9702321887016295    0.5184816122055054 O
   0.6573878526687622    0.5060769319534302    0.7428492903709412 F
   0.4088614881038666    0.2644324898719788    0.9243690371513367 F
   0.6696627140045166    0.5660476684570312    0.1915839612483978 F
   0.2199512273073196    0.5659305453300476    0.1526852399110794 F
   0.0704750716686249    0.0367236174643040    0.1470748186111450 F
   0.4793211519718170    0.8081827759742737    0.9747157096862793 F
   0.2196944206953049    0.5184191465377808    0.6941217184066772 F
