Ba Ca F 
 1.0000000000000000
     4.0287100448833328    0.0000000000000000    0.0000000000000000
     2.0087785746012257    6.6840282312682282    0.0000000000000000
     0.0062365477680614    1.1619304364885521    6.9296534235058642
 Ba  Ca  F  
   1   3   8
Cartesian
  3.4544477424518134  1.7487812549906532  6.1763878618094461
  1.4383204340643976  1.1667774507782911  2.7135135879182481
  1.4396224646234825  4.8188897217965776  4.3773768380779998
  3.4461884517665391  4.1975654968928247  1.0459185255983996
  1.4411682291747667  2.4488395188195935  4.6684148174148481
  3.4430670919446236  6.5801602943342399  0.7635755963126609
  3.4469227951746366  1.8873212600393054  1.5679528896284241
  1.4335407178306643  3.6445986224878291  2.2557309304685700
  3.4534618236418262  4.3326712828044993  5.7039185512460246
  3.4517288842687002  5.3600391460759864  3.1676360955664107
  1.4375300804983215  5.8487591766529974  6.6509752390864216
  5.4653037707277115  7.1267864700195824  3.8516262541301631
