K2 Rb2 Be2 Sn2 F12
1.0
   5.8864412307739258    0.0000000000000000   -0.0172078479081410
  -0.0311589448359844    7.6438216284249760   -1.9027956724166877
   0.0000000000000000    0.0000000000000000    7.5351610183715820
K Rb Be Sn F
2 2 2 2 12
direct
   0.1813755631446838    0.1654786914587021    0.1535539031028748 K
   0.6809382438659668    0.4053500592708588    0.0223278906196356 K
   0.1827792078256607    0.4855121076107025    0.7017418742179869 Rb
   0.6811438798904419    0.0867997184395790    0.4745827913284301 Rb
   0.6833183169364929    0.5293046236038207    0.4819948673248290 Be
   0.1815815567970276    0.0455780029296875    0.6959646940231322 Be
   0.1831513941287994    0.6939830780029297    0.2700009346008301 Sn
   0.6794896721839905    0.8785153627395630    0.9067754149436950 Sn
   0.9661973714828491    0.1401563882827759    0.7971855998039244 F
   0.1819772869348526    0.8497560024261475    0.7091863751411437 F
   0.4322286248207092    0.7858960628509521    0.0881040543317795 F
   0.6812840700149536    0.7250313758850098    0.4682289659976959 F
   0.8980287909507751    0.4341656267642975    0.3800976872444152 F
   0.1834314018487930    0.4674462974071503    0.0582437068223953 F
   0.6806670427322388    0.1052245125174522    0.1200328767299652 F
   0.9320032000541687    0.7853121161460876    0.0879407078027725 F
   0.4669598042964935    0.4351132214069366    0.3806581497192382 F
   0.6817439198493958    0.5059173703193665    0.6880170106887816 F
   0.3977173864841461    0.1388180553913116    0.7981030344963073 F
   0.1806768774986267    0.0684927925467491    0.4904011487960815 F
