Cs1 Li1 S2 O6 F2
1.0
   4.8352370262145996    0.0000000000000000    1.5875500440597536
  -0.6909151348451973    5.2623332105308060    2.0293745994567862
   0.0000000000000000    0.0000000000000000    7.9367203712463379
Cs Li S O F
1 1 2 6 2
direct
   0.2163581699132919    0.1302431970834732    0.0612801685929298 Cs
   0.4116112589836121    0.8918433785438539    0.5122545361518860 Li
   0.6051916480064393    0.4534844458103180    0.4007935523986816 S
   0.7928693294525146    0.7548305392265320    0.7523469924926758 S
   0.8259640336036682    0.5108987092971802    0.8764475584030151 O
   0.0017354125156999    0.8601232767105103    0.5619920492172241 O
   0.5397238731384277    0.2662605345249176    0.3311406373977661 O
   0.5057473778724670    0.7893497347831727    0.7561836838722229 O
   0.5178573727607727    0.3682864010334015    0.6076490283012390 O
   0.5612948536872864    0.7158227562904358    0.3105976581573486 O
   0.8558024168014526    0.9420661330223082    0.8512578606605530 F
   0.9444411396980286    0.4800586700439454    0.3303788006305695 F
