Cs2 Ca1 F4                              
   1.00000000000000     
     3.5659731672423756    0.0026856450005959   -0.9623508161204225
     1.0213974566185653    6.2251854713289916   -3.2973741867453170
     0.0213851286814421    0.0343405960908319    7.1598957104291854
   Cs   Ca   F 
     2     1     4
Direct
  0.0489230732053720  0.6730595991034611  0.1311675305215670
  0.7350363950743227  0.9862874440766379  0.8150854796566439
  0.3913558040616785  0.3299430512088407  0.4733231981372186
  0.3891665595386895  0.0322997105521429  0.1728631990903813
  0.7620963816655490  0.4627800366512869  0.3476180641433749
  0.0217693960546515  0.1970495894352750  0.5998622118551878
  0.3929303644986578  0.6274937961430614  0.7737281381412273
 
  0.00000000E+00  0.00000000E+00  0.00000000E+00
  0.00000000E+00  0.00000000E+00  0.00000000E+00
  0.00000000E+00  0.00000000E+00  0.00000000E+00
  0.00000000E+00  0.00000000E+00  0.00000000E+00
  0.00000000E+00  0.00000000E+00  0.00000000E+00
  0.00000000E+00  0.00000000E+00  0.00000000E+00
  0.00000000E+00  0.00000000E+00  0.00000000E+00
