K1 Sn1 F5
1.0
   5.4396219253540039    0.0000000000000000    0.7271136045455930
   0.7512683045921088    4.8324634975210241   -0.6220719218254084
   0.0000000000000000    0.0000000000000000    4.8849110603332520
K Sn F
1 1 5
direct
   0.5545979142189026    0.3806573152542115    0.6869107484817505 K
   0.0597343742847443    0.8998839259147644    0.2058919221162796 Sn
   0.1057212501764297    0.1937071532011032    0.5025294423103333 F
   0.3229754865169525    0.6233749985694885    0.2976893484592438 F
   0.3249564170837402    0.9870811700820924    0.9318962097167968 F
   0.8022257089614868    0.7899432778358459    0.4767929911613464 F
   0.8050557971000671    0.1715117692947388    0.0941453427076340 F
