K1 Rb1 Ti1 F6
1.0
   5.5597119331359872    0.0000000000000000   -3.2053823471069327
   1.8565443107585511    5.2470743275847385   -3.2031526565551758
   0.0000000000000000    0.0000000000000000    6.4235277175903320
K Rb Ti F
1 1 1 6
direct
   0.5875197052955627    0.1931929290294647    0.1005651578307152 K
   0.3377476334571838    0.9419957995414735    0.3511827588081360 Rb
   0.8382228016853333    0.4434265792369843    0.8504376411437988 Ti
   0.0492445714771748    0.2314615994691849    0.0621692426502705 F
   0.6265597343444825    0.6537568569183350    0.0613703057169914 F
   0.0488595329225063    0.6534950733184816    0.0620054155588150 F
   0.0491017550230026    0.2320094853639603    0.6404656767845154 F
   0.6262238621711731    0.6543174982070923    0.6398679018020630 F
   0.6265144348144531    0.2327924668788910    0.6399809718132019 F
