Rb2 Sb4 F14                             
   1.00000000000000     
     6.1019366693342505   -0.0031677332242701   -1.9821452239469890
    -4.0028299918378432    6.3171568687763697   -1.7354693392027252
    -0.0315567550737427    0.2102801912423695    9.8348202148862018
   Rb   Sb   F 
     2     4    14
Direct
  0.9790579538869094  0.2187047296973130  0.2029638727870879
  0.7966737210783986  0.7568217061448290  0.4204747259464234
  0.4623084613846845  0.7601433188858685  0.7312174313688142
  0.3742738682306014  0.2959610668292323  0.9137012544425310
  0.1081930169033403  0.7158162401987005  0.0801362975087995
  0.6009979511078890  0.2121413641061313  0.5174031550075284
  0.4475075856146538  0.0818407247498440  0.9729158780331784
  0.5498757108671976  0.9282353404797293  0.5811173057230786
  0.7077762231127595  0.0766766114675086  0.3824712912453753
  0.5657456541271207  0.5917459957675594  0.6229463875473114
  0.8300431125459333  0.7967835069377895  0.0259780932525124
  0.9281316719714306  0.5742890456036993  0.1909054051644673
  0.2297630816005693  0.0035383812645306  0.3776840260142256
  0.0154652568109015  0.1155856339313369  0.8756614333699975
  0.1137662457277362  0.6082476664595216  0.5545950353120036
  0.2937876232965212  0.5486478166749764  0.1283377710811787
  0.8430063618811124  0.4600107971047189  0.8892734668725368
  0.2769546538504739  0.1247945081714384  0.6985875009575060
  0.2681910634794550  0.4967724372549665  0.7798225627219761
  0.5371180784836924  0.3328673821963247  0.3564717655608236
 
  0.00000000E+00  0.00000000E+00  0.00000000E+00
  0.00000000E+00  0.00000000E+00  0.00000000E+00
  0.00000000E+00  0.00000000E+00  0.00000000E+00
  0.00000000E+00  0.00000000E+00  0.00000000E+00
  0.00000000E+00  0.00000000E+00  0.00000000E+00
  0.00000000E+00  0.00000000E+00  0.00000000E+00
  0.00000000E+00  0.00000000E+00  0.00000000E+00
  0.00000000E+00  0.00000000E+00  0.00000000E+00
  0.00000000E+00  0.00000000E+00  0.00000000E+00
  0.00000000E+00  0.00000000E+00  0.00000000E+00
  0.00000000E+00  0.00000000E+00  0.00000000E+00
  0.00000000E+00  0.00000000E+00  0.00000000E+00
  0.00000000E+00  0.00000000E+00  0.00000000E+00
  0.00000000E+00  0.00000000E+00  0.00000000E+00
  0.00000000E+00  0.00000000E+00  0.00000000E+00
  0.00000000E+00  0.00000000E+00  0.00000000E+00
  0.00000000E+00  0.00000000E+00  0.00000000E+00
  0.00000000E+00  0.00000000E+00  0.00000000E+00
  0.00000000E+00  0.00000000E+00  0.00000000E+00
  0.00000000E+00  0.00000000E+00  0.00000000E+00
