K3 I1 F2                                
   1.00000000000000     
     4.8699794891695580   -0.0074893147034131    0.0319402131929032
     0.0096300421221279    4.8807856163511882    0.0105764143441748
     0.0088609807920487   -0.0008080669308569    7.4164673137156365
   K    I    F 
     3     1     2
Direct
  0.2619213200908830  0.3400820549325528  0.3422318170429028
  0.7558954488313465  0.8400900877804917  0.5632105012607456
  0.7627731716659668  0.8404814188361380  0.1226300673397816
  0.2584303284231723  0.3393091108997644  0.8430300141222669
  0.7629902383481855  0.3395715515052996  0.3446064873456355
  0.2662950148438913  0.8393685952024004  0.3449314554222562
 
  0.00000000E+00  0.00000000E+00  0.00000000E+00
  0.00000000E+00  0.00000000E+00  0.00000000E+00
  0.00000000E+00  0.00000000E+00  0.00000000E+00
  0.00000000E+00  0.00000000E+00  0.00000000E+00
  0.00000000E+00  0.00000000E+00  0.00000000E+00
  0.00000000E+00  0.00000000E+00  0.00000000E+00
