K1 Rb2 C1 O3 F1
1.0
   5.5943779945373535    0.0000000000000000   -0.0097937071695925
  -0.0089601431135673    5.0990951015507271    0.0090082790702589
   0.0000000000000000    0.0000000000000000    5.4956917762756348
K Rb C O F
1 2 1 3 1
direct
   0.5760203599929810    0.9000754356384276    0.2360027134418488 K
   0.0766341239213943    0.4017024338245391    0.1587473303079605 Rb
   0.5774217844009399    0.4003016054630280    0.7210242748260498 Rb
   0.0781277194619179    0.9005066156387329    0.6769618988037109 C
   0.2844339311122894    0.8997298479080200    0.7921720743179321 O
   0.8727279901504517    0.8994315862655640    0.7957895398139954 O
   0.0760050043463707    0.9012767672538756    0.4312685728073120 O
   0.5762503743171692    0.3997910022735596    0.2182924747467041 F
