Na1 Ho1 Al1 F7
1.0
   3.7454681396484375    0.0000000000000000    0.0000565410955458
   0.0036071608705037    3.7011906212382346   -0.7948979139328003
   0.0000000000000000    0.0000000000000000    8.7977027893066406
Na Ho Al F
1 1 1 7
direct
   0.1889031082391739    0.4100123047828675    0.3085625171661377 Na
   0.6883442997932434    0.7506519556045532    0.9902884960174561 Ho
   0.6878365874290466    0.0488265044987202    0.5932322144508362 Al
   0.1902395635843277    0.8268327713012695    0.1442153453826904 F
   0.6887327432632446    0.3119258582592010    0.1137721613049507 F
   0.1878419965505600    0.6819700002670288    0.8538026213645935 F
   0.6887416839599609    0.1591899991035461    0.8080520629882812 F
   0.6878138184547424    0.5464207530021667    0.5892492532730103 F
   0.1881775259971619    0.0456617064774036    0.5859667658805847 F
   0.6878094673156738    0.9436632990837097    0.3817229568958282 F
