Li3 Mn2 F7                              
   1.00000000000000     
     4.9789277048305562   -0.0047591067373717    2.5501689489328894
     2.7283935558032617    4.7318073544343839    0.7349175254967787
     0.1830884142538278    0.2893486936518345    5.7533135991121753
   Li   Mn   F 
     3     2     7
Direct
  0.2226741315063618  0.0525739070105596  0.1525820294260865
  0.3267546195491591  0.4247372553206270  0.5716224890048498
  0.8276325281685977  0.7392717022448914  0.3650754712757825
  0.6625273860001070  0.4374128577806887  0.8625574051494795
  0.8549147303096793  0.0442234989286424  0.8623967955247962
  0.6410784511546284  0.8734673626488852  0.1350883921869721
  0.2535263399459105  0.6824373223904654  0.1135542089081906
  0.0871269157851731  0.2270430325581299  0.5660741764523337
  0.5391047401953618  0.6088182498133816  0.5964407083271041
  0.7937609520050637  0.2492476299714199  0.1518051857398595
  0.3398185642637482  0.2278159107722047  0.8543923307671362
  0.9413040190592479  0.7834243913687059  0.6224732526991602
 
  0.00000000E+00  0.00000000E+00  0.00000000E+00
  0.00000000E+00  0.00000000E+00  0.00000000E+00
  0.00000000E+00  0.00000000E+00  0.00000000E+00
  0.00000000E+00  0.00000000E+00  0.00000000E+00
  0.00000000E+00  0.00000000E+00  0.00000000E+00
  0.00000000E+00  0.00000000E+00  0.00000000E+00
  0.00000000E+00  0.00000000E+00  0.00000000E+00
  0.00000000E+00  0.00000000E+00  0.00000000E+00
  0.00000000E+00  0.00000000E+00  0.00000000E+00
  0.00000000E+00  0.00000000E+00  0.00000000E+00
  0.00000000E+00  0.00000000E+00  0.00000000E+00
  0.00000000E+00  0.00000000E+00  0.00000000E+00
