K2 H6 O2 F4                             
   1.00000000000000     
     4.5209397634604667   -0.0485023225273677    0.5789904339048320
     0.8992365468001725    5.8363435522206331    0.4497944026212421
    -0.0380073931592191   -0.1361629794084834    7.2575066680027245
   K    H    O    F 
     2     6     2     4
Direct
  0.6043161889054993  0.2682565914339400  0.9926242024221801
  0.2141559372757928  0.5910964165234892  0.5180953149572951
  0.3194763073443577  0.7310122985782799  0.0909310169423954
  0.4927561667086208  0.1268783469337472  0.4206483042096251
  0.6622849423816088  0.7288071705450520  0.8358212148461940
  0.1520183167533914  0.1309308394130998  0.6759559988305781
  0.8325771486561510  0.1499635263897409  0.4205077270395745
  0.9796040581689420  0.7082410471000637  0.0919904005802620
  0.6500087034375649  0.2161463726596632  0.3646823826221970
  0.1625773806994494  0.6415324698389611  0.1471943356764097
  0.6663032197214754  0.6422770257246310  0.7074701964670785
  0.1519587967987499  0.2175020808748985  0.8037372721197348
  0.1541205223333155  0.0498283870166938  0.5240657173136160
  0.6563484276821459  0.8100837116338009  0.9886751426979614
 
  0.00000000E+00  0.00000000E+00  0.00000000E+00
  0.00000000E+00  0.00000000E+00  0.00000000E+00
  0.00000000E+00  0.00000000E+00  0.00000000E+00
  0.00000000E+00  0.00000000E+00  0.00000000E+00
  0.00000000E+00  0.00000000E+00  0.00000000E+00
  0.00000000E+00  0.00000000E+00  0.00000000E+00
  0.00000000E+00  0.00000000E+00  0.00000000E+00
  0.00000000E+00  0.00000000E+00  0.00000000E+00
  0.00000000E+00  0.00000000E+00  0.00000000E+00
  0.00000000E+00  0.00000000E+00  0.00000000E+00
  0.00000000E+00  0.00000000E+00  0.00000000E+00
  0.00000000E+00  0.00000000E+00  0.00000000E+00
  0.00000000E+00  0.00000000E+00  0.00000000E+00
  0.00000000E+00  0.00000000E+00  0.00000000E+00
