K1 Na2 Zr1 F7
1.0
   5.1943988800048819    0.0000000000000000    1.7521395683288581
  -1.0232407230032576    5.0830469216899141    1.7489765882492077
   0.0000000000000000    0.0000000000000000    6.3036575317382812
K Na Zr F
1 2 1 7
direct
   0.2217996865510941    0.6623933911323546    0.1432587206363678 K
   0.7244617342948914    0.1582197695970535    0.1432016044855118 Na
   0.9537147879600525    0.9275698065757750    0.6425544023513794 Na
   0.5030954480171204    0.3785116374492645    0.6423670649528503 Zr
   0.6220765113830566    0.5205156207084656    0.8738301396369934 F
   0.1387415379285812    0.1343762576580048    0.8926321864128113 F
   0.3603248000144958    0.2568005919456482    0.4130239486694336 F
   0.6000476479530334    0.0536852627992630    0.8709810376167297 F
   0.2413604557514191    0.6396410465240479    0.6428505182266235 F
   0.8284891247749329    0.2829593122005462    0.4153201580047607 F
   0.7470695376396179    0.7451081275939941    0.3936823904514313 F
