Na1 Li2 H3 F6
1.0
   5.4958648681640625    0.0000000000000000    0.3362090289592743
   2.6895846172063633    4.8763085101366288    1.7443679571151740
   0.0000000000000000    0.0000000000000000    4.9822635650634766
Na Li H F
1 2 3 6
direct
   0.3463211059570314    0.8036186695098876    0.5886191129684448 Na
   0.6705432534217834    0.0752185508608818    0.9908977150917053 Li
   0.9170984029769897    0.4686146676540374    0.1390289813280106 Li
   0.1693000197410583    0.0723445713520050    0.9999100565910339 H
   0.5687992572784424    0.3313311338424683    0.4305341839790344 H
   0.8277868628501892    0.7369048595428467    0.5620625615119934 H
   0.6759891510009766    0.3055275976657867    0.2264819592237473 F
   0.4694510698318481    0.3697035610675812    0.6335293650627136 F
   0.0591644309461117    0.0240292344242334    0.8634493350982666 F
   0.2652059495449066    0.1351763755083084    0.1526895910501480 F
   0.8488829731941223    0.7213056087493895    0.3422848582267761 F
   0.7466928958892822    0.7573153972625732    0.7886009812355042 F
