Bi3 F9
1.0
   4.4422178268432626    0.0000000000000000    1.7870239019393916
   1.5135572893624385    5.5400582366467281   -1.1943202018737793
   0.0000000000000000    0.0000000000000000    7.4877424240112305
Bi F
3 9
direct
   0.1016955599188804    0.6540133953094482    0.6076382398605347 Bi
   0.8164069652557373    0.0334129258990288    0.3322286307811737 Bi
   0.4604439139366150    0.3442250788211823    0.9700093865394593 Bi
   0.8777744770050049    0.0464699268341064    0.8190753459930420 F
   0.0432582013309002    0.6414496898651123    0.1225703060626984 F
   0.1953031271696091    0.0833666920661926    0.0635650232434273 F
   0.9594847559928894    0.3428750038146973    0.4707640707492829 F
   0.6693301796913146    0.8070237040519714    0.5625553131103516 F
   0.3838121592998505    0.3246736526489258    0.6847842931747437 F
   0.7269640564918518    0.6057125926017762    0.8767972588539124 F
   0.2473551928997040    0.8814694881439209    0.3783355057239532 F
   0.5361333489418029    0.3682547211647034    0.2563382685184479 F
