Li5 O1 F3
1.0
   2.9558103084564209    0.0000000000000000    0.0080728121101861
   0.0226771119891688    5.6989251997389605   -0.3283130824565887
   0.0000000000000000    0.0000000000000000    5.1413040161132812
Li O F
5 1 3
direct
   0.5726215839385986    0.2923312485218048    0.3364322185516357 Li
   0.0741743519902229    0.4602614939212799    0.0134823098778725 Li
   0.0716285258531570    0.8104464411735535    0.2691196799278259 Li
   0.5723544359207153    0.6336306333541870    0.6089211702346802 Li
   0.0783810541033745    0.0643033236265182    0.7447636127471924 Li
   0.0736169740557671    0.4934591054916382    0.3916161358356476 O
   0.5725285410881042    0.9730849266052246    0.4511288702487946 F
   0.0765295177698135    0.7671492695808411    0.8994917273521423 F
   0.5777645111083984    0.2604469060897827    0.9159314632415771 F
