Cs2 Li1 Bi1 F6                          
   1.00000000000000     
     4.6767213368571685   -0.0007781799077422   -0.0144930917968781
    -0.0059149535286575    6.4053315321961088   -0.0135003206840906
     0.0088100967758714    0.0056354502383337    6.4126875644229502
   Cs   Li   Bi   F 
     2     1     1     6
Direct
  0.0504167072971562  0.9490572426072970  0.2069753187512910
  0.0506640457518253  0.4486926476337174  0.7072419234411125
  0.5501971212522170  0.4488478201780903  0.2069357078246972
  0.5505517625422878  0.9485174077139082  0.7067940162874923
  0.0507316061711251  0.9484972830766176  0.7070981860313152
  0.5501048706656136  0.1983233598630644  0.9561967821043480
  0.5506561055273735  0.6995401017330319  0.9559143700219701
  0.0506837792340625  0.4485796098890333  0.2077113488833423
  0.5503816267046696  0.1975714895677764  0.4578173923244551
  0.5507622236128437  0.6990513102231966  0.4576869397654621
 
  0.00000000E+00  0.00000000E+00  0.00000000E+00
  0.00000000E+00  0.00000000E+00  0.00000000E+00
  0.00000000E+00  0.00000000E+00  0.00000000E+00
  0.00000000E+00  0.00000000E+00  0.00000000E+00
  0.00000000E+00  0.00000000E+00  0.00000000E+00
  0.00000000E+00  0.00000000E+00  0.00000000E+00
  0.00000000E+00  0.00000000E+00  0.00000000E+00
  0.00000000E+00  0.00000000E+00  0.00000000E+00
  0.00000000E+00  0.00000000E+00  0.00000000E+00
  0.00000000E+00  0.00000000E+00  0.00000000E+00
