Cs3 Sb1 F8                              
   1.00000000000000     
     5.6210513366443671    0.0064905520855989   -2.1252800213230758
    -0.7801634950256668    5.5426703978039464   -2.1869930253216392
     0.0960640905404083    0.1006325361239378    8.7005272179692561
   Cs   Sb   F 
     3     1     8
Direct
  0.2147778547164728  0.4317031834039982  0.8176857081235945
  0.9616194282769839  0.6790357614102076  0.3175862745311894
  0.4666211160428323  0.1835496387882964  0.3172371582541110
  0.7145268549039880  0.9316882726141024  0.8172672512026199
  0.0516405950642960  0.0348822894343821  0.9402899969432434
  0.7822571840982355  0.6801172680153164  0.6361166550814793
  0.3911888673325800  0.6459846913971500  0.2099354687393508
  0.3777060043865255  0.8279231811679902  0.6945107069279772
  0.6997674877690291  0.1448344067022913  0.6946891930039912
  0.7299682986755794  0.7183603425114458  0.9398547136768310
  0.0374798146865283  0.2167022020058041  0.4250241429054051
  0.6463629218380673  0.1828057799659699 -0.0015790712408872
 
  0.00000000E+00  0.00000000E+00  0.00000000E+00
  0.00000000E+00  0.00000000E+00  0.00000000E+00
  0.00000000E+00  0.00000000E+00  0.00000000E+00
  0.00000000E+00  0.00000000E+00  0.00000000E+00
  0.00000000E+00  0.00000000E+00  0.00000000E+00
  0.00000000E+00  0.00000000E+00  0.00000000E+00
  0.00000000E+00  0.00000000E+00  0.00000000E+00
  0.00000000E+00  0.00000000E+00  0.00000000E+00
  0.00000000E+00  0.00000000E+00  0.00000000E+00
  0.00000000E+00  0.00000000E+00  0.00000000E+00
  0.00000000E+00  0.00000000E+00  0.00000000E+00
  0.00000000E+00  0.00000000E+00  0.00000000E+00
