Rb2 Li4 F6
1.0
   5.6923294067382812    0.0000000000000000    1.1898449659347532
   2.9851192903054762    4.8485808121993221    1.1900320053100588
   0.0000000000000000    0.0000000000000000    5.9735031127929688
Rb Li F
2 4 6
direct
   0.8770845532417298    0.6735299825668335    0.8655354976654052 Rb
   0.4149136245250702    0.1339254081249237    0.3666985630989075 Rb
   0.5073906183242799    0.4023734927177429    0.8030631542205809 Li
   0.1435060799121856    0.7656724452972412    0.3029436469078064 Li
   0.7850174307823181    0.4051641225814819    0.4287044107913970 Li
   0.1468194127082825    0.0435126647353172    0.9298758506774901 Li
   0.3409838974475861    0.6641505360603333    0.0114554511383176 F
   0.3891893923282623    0.1611321866512299    0.8662702441215514 F
   0.4040864109992982    0.5972459912300110    0.5123486518859863 F
   0.9018254876136779    0.6466814279556276    0.3651786148548126 F
   0.9515266418457032    0.1436930000782013    0.2206811308860779 F
   0.8859507441520692    0.2111207097768784    0.7194484472274780 F
