F  H  O  P 
 1.0000000000000000
     5.4119522042201247    0.0000000000000000    0.0000000000000000
     1.0518925030941073    5.0426010793654905    0.0000000000000000
    -0.9312257573157251    0.0754651573637942    5.4328428898791898
 F   H   O   P  
   1   3   6   2
Cartesian
  3.9457859396906745  2.2645201808494879  2.6934483313098876
  1.0337515070489436  4.1346989298970378  4.3302166580795740
  0.7515948711661162  2.3250286465875907  1.1451355671449177
  3.1333082534929435  0.1955792375359357  4.5047373243348456
  3.6938194339633981  4.5077680481609237  1.6866831627682930
  0.4864311784656132  3.2846094312436769  1.4854140962784534
  5.0818555512674664  4.2618240368957165  3.6861725488554908
  1.9520699272304065  4.0138147898700645  4.7996708029968840
  1.1756069385217183  1.0845757742829050  0.5029422663944874
  2.6011957121044209  0.8177612373546911  5.1068253492462992
  4.7487395190527462  3.6012332301749597  2.4186715186002599
  2.2428526878543438  0.1151904195678408  0.2495820529317125
