Na3 Mo1 F6                              
   1.00000000000000     
     5.3087701722308518   -0.0138669142853010   -2.8592575311518349
    -3.7714487150915743    4.7030047006345228   -0.0122437638360976
     0.0002157562490278    0.0122103083147080    5.7133756148389505
   Na   Mo   F 
     3     1     6
Direct
  0.2288853728975825  0.6900277784573120  0.9836249039219807
  0.2457687570709090  0.1811306677627717  0.4922655054500927
  0.6628378734069905  0.9721212410543361  0.7006873170980175
  0.6448924609689992  0.4810963838712382  0.1917498592838768
  0.7492305372239001  0.8390317729235416  0.0865548982848847
  0.1169746247138707  0.7346336891112966  0.5506439103775808
  0.4946093761122100  0.5854620011430177  0.3998532335074142
  0.5048280655291978  0.1228782408716649  0.3050725726886481
  0.1812721884124987  0.2710666159219600  0.8335225315461404
  0.7518149464016498  0.3684901111349630  0.9400171515364900
 
  0.00000000E+00  0.00000000E+00  0.00000000E+00
  0.00000000E+00  0.00000000E+00  0.00000000E+00
  0.00000000E+00  0.00000000E+00  0.00000000E+00
  0.00000000E+00  0.00000000E+00  0.00000000E+00
  0.00000000E+00  0.00000000E+00  0.00000000E+00
  0.00000000E+00  0.00000000E+00  0.00000000E+00
  0.00000000E+00  0.00000000E+00  0.00000000E+00
  0.00000000E+00  0.00000000E+00  0.00000000E+00
  0.00000000E+00  0.00000000E+00  0.00000000E+00
  0.00000000E+00  0.00000000E+00  0.00000000E+00
