Cs1 Hf1 F5
1.0
   3.8773868083953853    0.0000000000000000   -0.0259551648050545
  -0.0187222923889400    4.1210083059349278   -0.0127628603950144
   0.0000000000000000    0.0000000000000000    6.9643988609313965
Cs Hf F
1 1 5
direct
   0.1653466969728470    0.4557306468486786    0.0130013506859541 Cs
   0.6649817228317261    0.9566742777824402    0.5108371973037720 Hf
   0.1651023626327515    0.9560689330101014    0.6602415442466736 F
   0.1660989075899124    0.9560104012489319    0.3610385060310364 F
   0.6655043959617615    0.4566289186477662    0.5096271038055420 F
   0.6639086008071899    0.9574694633483887    0.2146060615777969 F
   0.6649699807167053    0.9567158222198486    0.8041588068008423 F
