Ca F  Na Pb Tl
 1.0000000000000000
     3.9676674802956824    0.0000000000000000    0.0000000000000000
     0.0026205036424106    3.9418722064866061    0.0000000000000000
     0.0659642864637284    0.0036886515002348   10.6437129937799551
 Ca  F   Na  Pb  Tl 
   1   6   1   1   1
Cartesian
  3.1824785491065963  1.6574803659833781  3.0359628345246761
  2.9635232024134353  1.6658377264958739  9.9011965290060573
  1.1958888458045818  1.6579846950803263  4.2824057060445044
  1.1830001891864379  1.6563304686917177  1.5612908491739337
  3.1887315762634505  3.6272244800431879  1.5605114706755667
  3.1794101742449676  3.6292239703367031  4.3070476430681683
  1.1947947232495675  3.6414817628488905  7.7518324062665744
  1.1988842974822622  3.6282183199374258  5.3455544247922981
  1.2994828355489640  3.6276506595054885  0.0953484501876074
  3.1868514212919057  1.6590116694799559  7.4420419828566535
