Cs2 Sb1 F7
1.0
   6.2658576965332031    0.0000000000000000   -0.1843233555555342
   0.6520795593672721    6.1027747825140501   -0.1200227513909342
   0.0000000000000000    0.0000000000000000    7.5956845283508301
Cs Sb F
2 1 7
direct
   0.1489461213350296    0.8568682074546814    0.0463496558368206 Cs
   0.7212598323822021    0.4256480634212494    0.5484642386436462 Cs
   0.6858217716217041    0.3955920040607453    0.0481251478195190 Sb
   0.4715016484260559    0.1745515167713166    0.0401136241853237 F
   0.8171381950378418    0.1824697554111481    0.8793604373931885 F
   0.8583695888519287    0.5667352080345154    0.8925861120223999 F
   0.4773330092430115    0.5302216410636902    0.8779351711273193 F
   0.8221765160560608    0.1842757612466812    0.2162598520517349 F
   0.4777026474475861    0.5240716338157654    0.2139696031808853 F
   0.8568332195281982    0.5762684941291809    0.2121634334325790 F
