K2 Ba2 F6                               
   1.00000000000000     
     6.7166489153121098   -0.0006469208621161   -3.6132320157004094
    -0.6361961702059197    4.0705265911396618   -1.1864349420438880
    -0.0831637920487985    0.0438479888574423    7.9602633554007394
   K    Ba   F 
     2     2     6
Direct
  0.2144173615240491  0.5849304505891015  0.1190693441685227
  0.2836507839728083  0.3347488254082814  0.6099908302014463
  0.7056965685766735  0.0847540041525420  0.1153771762835214
  0.7929327339400837  0.8347882293315111  0.6134568328915334
  0.4874537615147643  0.5341277616658358  0.0136537959675673
  0.5133244875226486  0.8867729455329554  0.7125963606314923
  0.9841726041530059  0.0347887878963195  0.0158948566508243
  0.0116771726426100  0.3855672995777553  0.7162312921029312
  0.9389462292044400  0.7020858071474335  0.3502032973358544
  0.5600812175332966  0.2193651174511156  0.3792974871781170
 
  0.00000000E+00  0.00000000E+00  0.00000000E+00
  0.00000000E+00  0.00000000E+00  0.00000000E+00
  0.00000000E+00  0.00000000E+00  0.00000000E+00
  0.00000000E+00  0.00000000E+00  0.00000000E+00
  0.00000000E+00  0.00000000E+00  0.00000000E+00
  0.00000000E+00  0.00000000E+00  0.00000000E+00
  0.00000000E+00  0.00000000E+00  0.00000000E+00
  0.00000000E+00  0.00000000E+00  0.00000000E+00
  0.00000000E+00  0.00000000E+00  0.00000000E+00
  0.00000000E+00  0.00000000E+00  0.00000000E+00
