Ba4 Nd1 F11
1.0
   5.6024842262268066    0.0000000000000000    2.5273332595825200
   2.7742447744250289    6.8345344569815802    1.2743017673492432
   0.0000000000000000    0.0000000000000000    7.4761466979980469
Ba Nd F
4 1 11
direct
   0.7833085656166077    0.5665273070335388    0.5184819102287292 Ba
   0.3600328266620636    0.8170115351676941    0.1145996898412704 Ba
   0.1634584963321686    0.3869197666645050    0.9387319087982178 Ba
   0.5747289657592773    0.1877260655164719    0.3145734965801239 Ba
   0.9836426377296449    0.9951431155204773    0.6889485716819763 Nd
   0.6239816546440125    0.2686359882354736    0.6401575207710266 F
   0.2298307567834854    0.5095458030700684    0.2138970941305161 F
   0.8397889137268066    0.7116691470146179    0.8063036203384399 F
   0.5808956027030945    0.0792761072516441    0.9802467823028564 F
   0.6989134550094604    0.5108954310417175    0.2139445245265961 F
   0.4142732918262482    0.8811687827110291    0.4440427124500275 F
   0.2953253984451294    0.7114775776863098    0.8050679564476013 F
   0.0131050292402506    0.0785451084375382    0.9790445566177368 F
   0.1199731752276420    0.2682041823863983    0.6392865777015686 F
   0.0767903774976730    0.1800887286663055    0.3186395168304443 F
   0.9139041304588318    0.8798629641532898    0.4443820416927338 F
