Cs1 H1 F2                               
   1.00000000000000     
     4.2198350055433131    0.0152264968394267   -0.6449188743211527
    -0.6171306005948703    4.1638183491014162    0.6142148799458067
     0.0112048362213908   -0.0082353506404539    4.2308488127804376
   Cs   H    F 
     1     1     2
Direct
  0.2356149633372791  0.6145019231868218  0.2942769566526741
  0.7352569329512770  0.1152182025412317  0.7954893715561837
  0.5978368212899365  0.2527944482353602  0.9323125640285124
  0.8719007822336333  0.9783190574924844  0.6597024295266223
 
  0.00000000E+00  0.00000000E+00  0.00000000E+00
  0.00000000E+00  0.00000000E+00  0.00000000E+00
  0.00000000E+00  0.00000000E+00  0.00000000E+00
  0.00000000E+00  0.00000000E+00  0.00000000E+00
