Na1 Er1 F4
1.0
   3.5076954364776611    0.0000000000000000   -0.0025015263818202
  -0.0011227311169182    5.1454051700206183   -0.0515577755868448
   0.0000000000000000    0.0000000000000000    5.1016435623168945
Na Er F
1 1 4
direct
   0.9153814315795897    0.7214723825454712    0.8088506460189819 Na
   0.4152744412422180    0.2215284258127213    0.3084150850772858 Er
   0.9152572751045226    0.4045901000499725    0.1243466660380363 F
   0.4156512618064880    0.9294037222862244    0.0155042158439755 F
   0.9153054952621459    0.0389751829206944    0.4928442239761353 F
   0.4152137637138366    0.5144864916801453    0.6010569930076599 F
