Rb3 Pr1 F6
1.0
   4.1360836029052734    0.0000000000000000   -0.0093555096536875
  -2.0789543234406684    7.5459102124224486    0.1018859893083568
   0.0000000000000000    0.0000000000000000    6.7155394554138184
Rb Pr F
3 1 6
direct
   0.5596022605895996    0.5538120865821838    0.6070012450218201 Rb
   0.6525703668594360    0.7428365349769593    0.1084444075822830 Rb
   0.9076856374740601    0.2578305006027222    0.1046417951583862 Rb
   0.2799457013607025    0.0018262863159180    0.6067097187042236 Pr
   0.1470370739698410    0.7314357161521912    0.8219717144966125 F
   0.1478984951972961    0.7343153357505798    0.3953718841075897 F
   0.4048174619674683    0.2545123994350433    0.3801577389240266 F
   0.7751057744026184    0.9913795590400696    0.8014248013496399 F
   0.4031821489334106    0.2499451339244843    0.8288255333900453 F
   0.7756972908973694    0.9923396110534668    0.4125499129295350 F
