Li4 Fe1 F6
1.0
   3.9440541267395024    0.0000000000000000   -0.0286254361271868
  -0.0274332011918289    4.9751674584700405    1.9503736495971684
   0.0000000000000000    0.0000000000000000    6.6179108619689941
Li Fe F
4 1 6
direct
   0.5501617789268494    0.1331442892551422    0.9495839476585388 Li
   0.0506501048803329    0.7935047745704651    0.8913850784301758 Li
   0.5487332940101624    0.6253182291984558    0.1970402002334595 Li
   0.5504335165023804    0.9329580068588257    0.5324298143386841 Li
   0.0496907420456409    0.4407807588577271    0.5390712618827820 Fe
   0.5501173138618469    0.9555099606513977    0.2470220625400543 F
   0.5495681762695312    0.7921888232231140    0.8864050507545471 F
   0.0502959415316582    0.1964827775955200    0.8529482483863831 F
   0.0496314205229282    0.5518119335174561    0.2112003415822983 F
   0.0487465858459473    0.7945655584335328    0.5980540513992310 F
   0.5502146482467651    0.3289147615432739    0.5204964280128479 F
