K2 Ni2 F6
1.0
   3.9804649353027344    0.0000000000000000   -0.0081636281684049
   0.0065841652306636    5.1449671577241585    2.4876558780670166
   0.0000000000000000    0.0000000000000000    6.6095619201660156
K Ni F
2 2 6
direct
   0.6135132312774658    0.7545038461685181    0.8879545927047729 K
   0.6130123734474182    0.4827064573764801    0.4346718490123749 K
   0.1136688441038132    0.2445315867662430    0.9083517193794250 Ni
   0.1136868894100189    0.9915118217468263    0.4153691530227661 Ni
   0.6137136220932007    0.2544642388820649    0.8883504867553711 F
   0.1132173240184784    0.6185247302055359    0.6619344353675842 F
   0.1140644103288651    0.8786031007766724    0.1616607010364532 F
   0.6132093667984009    0.9822441935539246    0.4352438747882843 F
   0.1136991009116173    0.3568337559700013    0.1621043980121613 F
   0.1136827766895294    0.1186004355549812    0.6615989804267883 F
