Na1 Li1 Si1 F6
1.0
   4.5596547126770028    0.0000000000000000    2.6645653247833248
   1.5272464637561127    4.2938239295598990    2.6730475425720210
   0.0000000000000000    0.0000000000000000    5.2761607170104980
Na Li Si F
1 1 1 6
direct
   0.2565035820007325    0.7087553143501282    0.7379425764083862 Na
   0.5075967311859131    0.9593507051467896    0.9887853264808655 Li
   0.0073912930674851    0.4584763050079346    0.4870355725288391 Si
   0.7763304114341735    0.6903505921363831    0.2575952410697938 F
   0.2387524992227554    0.6901277899742126    0.2567253708839417 F
   0.7758970856666564    0.6899296641349792    0.7197642326354982 F
   0.7766476869583130    0.2284295260906219    0.7195361852645874 F
   0.2388188093900680    0.2279071807861328    0.2574889063835145 F
   0.2379360795021057    0.2277881503105164    0.7189769148826599 F
