Pb3 Cl1 F5                              
   1.00000000000000     
     4.1570470217062061    0.0162070062030994    0.8977946369139663
    -0.0184294270588024    4.2525900774987457    0.0076008601908045
     0.0213484622680655    0.0137567725939263    9.8850595300625770
   Pb   Cl   F 
     3     1     5
Direct
  0.2082852218204016  0.5451566432180109  0.8932106181824427
  0.8592813580814831  0.0442619701449652  0.5877261519797269
  0.5545371373998096  0.0423270963804610  0.2043707378416987
  0.4233567306619467  0.5446110267310450  0.4688544109279659
  0.7831366444880626  0.5438163664572624  0.7487620490756517
  0.9902852921143703  0.0467400843332858  0.3324072573515621
  0.1377047805511603  0.0418304567726744  0.0373997696942495
  0.2874354864945509  0.0424514759126417  0.7364429312253514
  0.6251946696648794  0.5423154563872294  0.0675703097733878
 
  0.00000000E+00  0.00000000E+00  0.00000000E+00
  0.00000000E+00  0.00000000E+00  0.00000000E+00
  0.00000000E+00  0.00000000E+00  0.00000000E+00
  0.00000000E+00  0.00000000E+00  0.00000000E+00
  0.00000000E+00  0.00000000E+00  0.00000000E+00
  0.00000000E+00  0.00000000E+00  0.00000000E+00
  0.00000000E+00  0.00000000E+00  0.00000000E+00
  0.00000000E+00  0.00000000E+00  0.00000000E+00
  0.00000000E+00  0.00000000E+00  0.00000000E+00
