K1 W1 F6                                
   1.00000000000000     
     5.0399896770344199    0.0261232173232376   -0.6322015576368533
    -0.7135361373185714    4.9912974665352881   -0.6248675963159123
     0.0096787643643780    0.0122513816231530    5.0893100332015928
   K    W    F 
     1     1     6
Direct
  0.5580847862944298  0.2450323747401597  0.5042689165467790
  0.0572516401225320  0.7444442586806337  0.0043444306946588
  0.2750895343406562  0.6596618426103519  0.3101529109212562
  0.8388194901297357  0.8288463591879212  0.6984378975538953
  0.3642567532578322  0.9600361892139807  0.9202796426902046
  0.9773652347706581  0.0522441908786042  0.2235511079927959
  0.7511611994657880  0.5269415181425418  0.0883925278648579
  0.1389183462074683  0.4370045015921932  0.7858494736973672
 
  0.00000000E+00  0.00000000E+00  0.00000000E+00
  0.00000000E+00  0.00000000E+00  0.00000000E+00
  0.00000000E+00  0.00000000E+00  0.00000000E+00
  0.00000000E+00  0.00000000E+00  0.00000000E+00
  0.00000000E+00  0.00000000E+00  0.00000000E+00
  0.00000000E+00  0.00000000E+00  0.00000000E+00
  0.00000000E+00  0.00000000E+00  0.00000000E+00
  0.00000000E+00  0.00000000E+00  0.00000000E+00
