Cs1 Sb2 F11                             
   1.00000000000000     
     5.9264083510999548    0.0091114141522921    2.3180393431196982
    -0.9361797318098075    5.8154642300374162    2.3521746722470014
     0.0233949005073728    0.0004096728035573    8.5591211502524676
   Cs   Sb   F 
     1     2    11
Direct
  0.3381449902184042  0.1275317229115209  0.5463380559949090
  0.6972704851653336  0.4870524132425906  0.8293764444835332
  0.9786998311416882  0.7680303570723160  0.2640778238940768
  0.8384806603035041  0.6291449752049847  0.5464190147835088
  0.4989417778154773  0.2896754514817376  0.8028189096721704
  0.1761328574795924  0.5436504267605649  0.2910522044187362
  0.5000164585825281  0.7116118002813417  0.8028087759908233
  0.7562144808284098  0.9675483764749601  0.2879624312229193
  0.9205471442572768  0.2885213555312861  0.8041348546377475
  0.1082758030043126  0.8951635609185112  0.0059568623685963
  0.5686133755110394  0.3587793970423639  0.0876329256111867
  0.1774127590384246  0.9672953049016059  0.2887395347208723
  0.9208596548590146  0.7114296914574177  0.8034683005719175
  0.7540909136375510  0.5438360147546112  0.2906517872694967
 
  0.00000000E+00  0.00000000E+00  0.00000000E+00
  0.00000000E+00  0.00000000E+00  0.00000000E+00
  0.00000000E+00  0.00000000E+00  0.00000000E+00
  0.00000000E+00  0.00000000E+00  0.00000000E+00
  0.00000000E+00  0.00000000E+00  0.00000000E+00
  0.00000000E+00  0.00000000E+00  0.00000000E+00
  0.00000000E+00  0.00000000E+00  0.00000000E+00
  0.00000000E+00  0.00000000E+00  0.00000000E+00
  0.00000000E+00  0.00000000E+00  0.00000000E+00
  0.00000000E+00  0.00000000E+00  0.00000000E+00
  0.00000000E+00  0.00000000E+00  0.00000000E+00
  0.00000000E+00  0.00000000E+00  0.00000000E+00
  0.00000000E+00  0.00000000E+00  0.00000000E+00
  0.00000000E+00  0.00000000E+00  0.00000000E+00
