K3 Sn2 H2 O1 F11                        
   1.00000000000000     
     6.3529093213671981    0.0624005381598689    2.4960940653168207
     1.6001762782345481    7.4551456097604065    2.2803879407644434
    -0.0235256883240662    0.0721907816181714    6.8093168235200467
   K    Sn   H    O    F 
     3     2     2     1    11
Direct
  0.7049913512311412  0.8820239073060029  0.2069233267320523
  0.4373340440262333  0.4674658057867052  0.9463846788536916
  0.1557549123101633  0.1925717931233786  0.6594159147224192
  0.7945423910170591  0.3122187201873224  0.2994334073018293
  0.0611944729637518  0.7763445857086447  0.5619515994933778
  0.5345016957550792  0.8858215507853470  0.8311788973728270
  0.3302511764247709  0.8865594274234005  0.0348110629426965
  0.4266739681462078 -0.0373254201076026  0.9275073744744662
  0.7634656755605388  0.7411520448448594  0.6344970185062356
  0.1347822795441461  0.7410329719218376  0.2629857087162799
  0.9260861777605469  0.0454540713273036  0.4326843860493372
  0.6679757959165543  0.5599210102350193  0.1673772917935923
  0.0868002328606536  0.3540685493633960  0.2289467485873545
  0.7215633236375419  0.3567170931205317  0.5918465326628488
  0.1835074971828861  0.5241369777197876  0.6842973971124656
  0.3310502846923889  0.8605370847044833  0.4835730985938702
  0.8674921807222040  0.2265005811204135  0.0287425692302985
  0.5224777051031284  0.2307795791688821  0.3710434406752253
  0.9838327563149999  0.8602689183710055  0.8330270459383305
 
  0.00000000E+00  0.00000000E+00  0.00000000E+00
  0.00000000E+00  0.00000000E+00  0.00000000E+00
  0.00000000E+00  0.00000000E+00  0.00000000E+00
  0.00000000E+00  0.00000000E+00  0.00000000E+00
  0.00000000E+00  0.00000000E+00  0.00000000E+00
  0.00000000E+00  0.00000000E+00  0.00000000E+00
  0.00000000E+00  0.00000000E+00  0.00000000E+00
  0.00000000E+00  0.00000000E+00  0.00000000E+00
  0.00000000E+00  0.00000000E+00  0.00000000E+00
  0.00000000E+00  0.00000000E+00  0.00000000E+00
  0.00000000E+00  0.00000000E+00  0.00000000E+00
  0.00000000E+00  0.00000000E+00  0.00000000E+00
  0.00000000E+00  0.00000000E+00  0.00000000E+00
  0.00000000E+00  0.00000000E+00  0.00000000E+00
  0.00000000E+00  0.00000000E+00  0.00000000E+00
  0.00000000E+00  0.00000000E+00  0.00000000E+00
  0.00000000E+00  0.00000000E+00  0.00000000E+00
  0.00000000E+00  0.00000000E+00  0.00000000E+00
  0.00000000E+00  0.00000000E+00  0.00000000E+00
