K1 Rb1 Na1 In1 F6                       
   1.00000000000000     
     5.3822165850257049   -0.0007553280591466    3.1068771634381691
     1.7932774396923801    5.0737227170323305    3.1071903863452035
    -0.0005923220451501   -0.0013550588380674    6.2146328384872094
   K    Rb   Na   In   F 
     1     1     1     1     6
Direct
  0.5359804444713759  0.1423814689809992  0.5038535379111129
  0.0361541224788922  0.6421045344355908  0.0042844772356469
  0.2862975179318940  0.8923746357889975  0.2536787870579866
  0.7862695635143198  0.3922797277685244  0.7539016585939921
  0.5466522261188467  0.6315070283334151  0.5145282643876494
  0.0254411502977015  0.1521042901372011  0.9939979430397423
  0.0259485311936373  0.6317536332149941  0.5143049847307855
  0.5464289466236529  0.6316211217040952  0.9937740230192434
  0.5466018828466076  0.1525246129324163  0.9934405653103016
  0.0257230372033309  0.1522938013208851  0.5146168326652606
 
  0.00000000E+00  0.00000000E+00  0.00000000E+00
  0.00000000E+00  0.00000000E+00  0.00000000E+00
  0.00000000E+00  0.00000000E+00  0.00000000E+00
  0.00000000E+00  0.00000000E+00  0.00000000E+00
  0.00000000E+00  0.00000000E+00  0.00000000E+00
  0.00000000E+00  0.00000000E+00  0.00000000E+00
  0.00000000E+00  0.00000000E+00  0.00000000E+00
  0.00000000E+00  0.00000000E+00  0.00000000E+00
  0.00000000E+00  0.00000000E+00  0.00000000E+00
  0.00000000E+00  0.00000000E+00  0.00000000E+00
