Ti2 F8                                  
   1.00000000000000     
     5.4055733640775143    0.0057096095246264   -0.0062566197463565
    -0.0043158141818144    4.9613003492173142   -2.9563725623363935
     0.0001097510045677   -0.1304762833066052    5.4809928633737597
   Ti   F 
     2     8
Direct
  0.4077081007035276  0.4241162173663234  0.1127495949430870
  0.9078915995945086  0.9171967557981816  0.0992181899725414
  0.2538049504034474  0.5870441120134757  0.4528861768214030
  0.7524943520737016  0.7421019160749445  0.7595276853663591
  0.9011699607732464  0.1108958390096228  0.4825675835433116
  0.1342598240780514  0.6521831960429688  0.0449506780589961
  0.6438235021790387  0.2224738089714446  0.1676435910822004
  0.1421069357612994  0.1127055631601872  0.0366456167038281
  0.6329509496305435  0.6913643945515593  0.1770892631640641
  0.4004054727742654  0.2306549452894323  0.7294220558634279
 
  0.00000000E+00  0.00000000E+00  0.00000000E+00
  0.00000000E+00  0.00000000E+00  0.00000000E+00
  0.00000000E+00  0.00000000E+00  0.00000000E+00
  0.00000000E+00  0.00000000E+00  0.00000000E+00
  0.00000000E+00  0.00000000E+00  0.00000000E+00
  0.00000000E+00  0.00000000E+00  0.00000000E+00
  0.00000000E+00  0.00000000E+00  0.00000000E+00
  0.00000000E+00  0.00000000E+00  0.00000000E+00
  0.00000000E+00  0.00000000E+00  0.00000000E+00
  0.00000000E+00  0.00000000E+00  0.00000000E+00
