K2 Bi2 F8                               
   1.00000000000000     
     5.7009203822333125   -0.0001215463911285   -0.0003583045057701
     0.0083394159873676    5.6981419417947086   -0.0048348269060103
    -0.0048141945880010    0.0001562197233214    6.3051208094208988
   K    Bi   F 
     2     2     8
Direct
  0.6979373893951843  0.0423856719473160  0.6737886429660307
  0.1980862171398489  0.5426541126413579  0.6736393989431818
  0.6977956503852289  0.5421494567677646  0.1735975768297852
  0.1977522897326360  0.0421710902336852  0.1735627042376923
  0.9481034268473569  0.7931889635037600  0.3843922875911946
  0.4482987586944671  0.2932059885613888  0.9625850377220354
  0.9486108379694177  0.7926805697221904  0.9628180575693120
  0.4488064507807250  0.2928505014784463  0.3841863590771446
  0.4484340297679025  0.7930254231813580  0.9625161878916102
  0.9486800215891952  0.2929740476234574  0.3844614687540984
  0.4476291329505320  0.7928381291941292  0.3843651801018718
  0.9480641203815082  0.2926560707465335  0.9624391405142241
 
  0.00000000E+00  0.00000000E+00  0.00000000E+00
  0.00000000E+00  0.00000000E+00  0.00000000E+00
  0.00000000E+00  0.00000000E+00  0.00000000E+00
  0.00000000E+00  0.00000000E+00  0.00000000E+00
  0.00000000E+00  0.00000000E+00  0.00000000E+00
  0.00000000E+00  0.00000000E+00  0.00000000E+00
  0.00000000E+00  0.00000000E+00  0.00000000E+00
  0.00000000E+00  0.00000000E+00  0.00000000E+00
  0.00000000E+00  0.00000000E+00  0.00000000E+00
  0.00000000E+00  0.00000000E+00  0.00000000E+00
  0.00000000E+00  0.00000000E+00  0.00000000E+00
  0.00000000E+00  0.00000000E+00  0.00000000E+00
