B  F  H  Sn
 1.0000000000000000
     4.9278072434112916    0.0000000000000000    0.0000000000000000
    -0.4913269295759220    6.9858751023285706    0.0000000000000000
    -1.5637454666952240   -2.6323318961580817    8.1633959177778337
 B   F   H   Sn 
   2  13   3   2
Cartesian
  1.3047066592556524  0.3084347424183739  1.1199114642229799
 -0.9380813465746667  1.9093560692258125  4.5208437868084408
  0.6041414953587085  1.4048110496320991  1.5191169187091031
 -0.1279051502446230 -1.2291970122927112  5.8928269619247935
  3.5634545221042000  3.6412882033097613  1.9348401793211532
  2.6212923762404277  0.5635229117943545  0.7725560074939245
  2.9985712484208498  1.4557756850488068  3.6604771157949458
 -0.3316924382807542  3.0969773366903435  4.0172757415128117
  1.4037182975344404  2.1754366714694644  7.8148145928480988
 -1.3301237591393609  4.0587666524935857  8.1190907115211299
  0.0585468054688469  0.9220412204044878  4.7578745723324687
  1.8632876794046513  5.4559701303271213  4.1459274920447413
  3.4193739103802607  2.2865950567106044  5.7806317089032486
  2.3695356938114660 -0.3967519607575741  7.0714651461263038
  0.7568562556721383  6.2918081384860782  2.1153109691921816
 -0.1318525522234601 -0.3219674796450842  5.4162264356711196
  4.0312420436042489  3.4020690638101638  2.7862919207565500
  1.4301997243811440  5.8541923131754734  3.3286189321955768
  1.4123145639311874  4.6440678281986427  6.4222292900274445
 -0.1717350029180429  3.9674785656607687  0.0313188151601513
