Ba2 Na1 La3 F14                         
   1.00000000000000     
     5.7479293501035542   -0.0002337165647079   -0.0721105037440613
     2.8071090316614944    6.4998159415000156   -2.0337201267986020
    -0.0160822754054013    0.0083127949632209    8.5342918637213945
   Ba   Na   La   F 
     2     1     3    14
Direct
  0.1285517914618779  0.1892342928715725  0.8129496892180198
  0.4602454463062919  0.5142528963103807  0.6506920792443799
  0.4585548152678626  0.5112742545659150  0.1442284800468938
  0.1294342648242749  0.1819626570485415  0.2997741165905390
  0.8240857258172622  0.8310841854562272  0.4729266551193097
  0.7776035745533737  0.8380202323307782  0.9754501628021214
  0.3934580110190472  0.1885099067904796  0.0890757487820869
  0.9000734789505895  0.1426012670844480  0.0703731754208319
  0.1993455424902143  0.4954574067231757  0.3708425230644831
  0.3848820688702521  0.8516739678336840  0.8819323383137926
  0.8893996986550354  0.6325307564374657  0.6742626893856036
  0.2076749881659056  0.8446943220353325  0.5681637197467261
  0.7077232697936100  0.0339512196787127  0.7643841812329958
  0.7212875542011451  0.5167166295169149  0.9378451576510326
  0.0280765413467956  0.8585685919524649  0.2355050030978421
  0.3889738958969240  0.1585549459703716  0.5295147385373552
  0.5474559075650973  0.8723399097464761  0.2347784484685693
  0.7318028791843202  0.5157276458415102  0.3641161098190299
  0.1868217798568146  0.5487214609682235  0.9232554217022009
  0.8688849922068210  0.1844529976167196  0.5190518866401250
 
  0.00000000E+00  0.00000000E+00  0.00000000E+00
  0.00000000E+00  0.00000000E+00  0.00000000E+00
  0.00000000E+00  0.00000000E+00  0.00000000E+00
  0.00000000E+00  0.00000000E+00  0.00000000E+00
  0.00000000E+00  0.00000000E+00  0.00000000E+00
  0.00000000E+00  0.00000000E+00  0.00000000E+00
  0.00000000E+00  0.00000000E+00  0.00000000E+00
  0.00000000E+00  0.00000000E+00  0.00000000E+00
  0.00000000E+00  0.00000000E+00  0.00000000E+00
  0.00000000E+00  0.00000000E+00  0.00000000E+00
  0.00000000E+00  0.00000000E+00  0.00000000E+00
  0.00000000E+00  0.00000000E+00  0.00000000E+00
  0.00000000E+00  0.00000000E+00  0.00000000E+00
  0.00000000E+00  0.00000000E+00  0.00000000E+00
  0.00000000E+00  0.00000000E+00  0.00000000E+00
  0.00000000E+00  0.00000000E+00  0.00000000E+00
  0.00000000E+00  0.00000000E+00  0.00000000E+00
  0.00000000E+00  0.00000000E+00  0.00000000E+00
  0.00000000E+00  0.00000000E+00  0.00000000E+00
  0.00000000E+00  0.00000000E+00  0.00000000E+00
