K1 Na1 Mg1 Zn1 F6
1.0
   4.9733328819274893    0.0000000000000000    2.8733236789703378
   1.6610923962763295    4.6868360266526823    2.8748762607574472
   0.0000000000000000    0.0000000000000000    5.7436079978942871
K Na Mg Zn F
1 1 1 1 6
direct
   0.1856815218925476    0.1674962490797043    0.4863806366920471 K
   0.6859595179557801    0.6671783328056335    0.9867412447929382 Na
   0.4357810318470001    0.4176512062549591    0.7363700270652771 Mg
   0.9358875751495361    0.9175729751586915    0.2367143779993057 Zn
   0.6825864911079407    0.6642592549324036    0.4898348152637482 F
   0.6825941801071167    0.1711447238922119    0.9832472205162048 F
   0.6827097535133362    0.1710066348314286    0.4900330901145935 F
   0.1888742893934250    0.6640759110450745    0.9834807515144348 F
   0.1891206353902816    0.6644415855407715    0.4899185299873352 F
   0.1887724101543426    0.1708871722221375    0.9836514592170715 F
