Na3 As1 F6
1.0
   5.0441684722900382    0.0000000000000000   -2.7228386402130131
  -1.8591446746141549    5.3367940263886853   -1.1330610513687123
   0.0000000000000000    0.0000000000000000    5.7326755523681641
Na As F
3 1 6
direct
   0.1733147352933884    0.3614187240600586    0.5795491933822632 Na
   0.0095785856246948    0.8622546792030334    0.7454820275306702 Na
   0.5001453161239624    0.3617730140686035    0.2530698180198669 Na
   0.8283445239067078    0.3615690469741821    0.9246061444282532 As
   0.9087654352188110    0.5742953419685364    0.3155510723590852 F
   0.1964077651500702    0.5814205408096313    0.9803566336631775 F
   0.4387600123882294    0.1479847729206085    0.8419683575630188 F
   0.6204280257225037    0.5724362134933472    0.6935256719589235 F
   0.0616655461490154    0.1532759070396423    0.1332010179758072 F
   0.7719138860702515    0.1431096047163010    0.5572477579116821 F
