F  K  Sc Tl
 1.0000000000000000
     4.1012956247292873    0.0000000000000000    0.0000000000000000
     2.0436550966619684    6.4729053435515143    0.0000000000000000
    -0.0021963950553323    0.0234601338889681    8.0268723832796773
 F   K   Sc  Tl 
   8   1   2   1
Cartesian
  4.9371825104413709  4.6345305037566691  5.0799974936486683
  2.8920103132792305  0.5870701300184811  6.7113869885571171
  0.8418378979311127  0.1425236555505675  0.6902630251032721
  2.8887051831751474  2.0917181034146308  4.2427658201434619
  4.9326319136214360  6.1094278655606837  2.6973572934902821
  2.8844511596417588  2.0798744807481060  1.1348509162972276
  0.8390533529051294  0.1363315826416049  4.6935313141180535
  4.9340268276296708  4.6230542728385968  0.3324628996234609
  4.9417058397366560  3.1303248132621482  2.7050350413699471
  2.8940460054290535  0.1318891950900420  4.6908243069516322
  2.8933827094419775  0.1186443723920195  0.6911590813151510
  2.8804331040566460  3.6126959985688485  6.7100822857393672
