Li4 Mn2 F8                              
   1.00000000000000     
     5.4668230190943561    0.0650591944815804   -1.5224899679966646
    -3.0513504226105548    4.5440770784331121   -1.5377943747664478
    -0.0244455078167505   -0.0545232626977608    5.8506488716102227
   Li   Mn   F 
     4     2     8
Direct
  0.3784460444272362  0.2769968737802481  0.6167545409027242
  0.0635013598177278  0.4629900760739400  0.9832457375426642
  0.7886501747050445  0.8726443692600048  0.1154182574875352
  0.9689617291739447  0.5525615354999117  0.4833227656348151
  0.4042715389332110  0.1449574000555771  0.0502543996829478
  0.6531156499275278  0.8936686032580264  0.5495902822862937
  0.6281136355114955  0.6723077648893027  0.7556317390149119
  0.6331345375711530  0.1834467487718269  0.8268156841807096
  0.1826062226638221  0.1214268518658250  0.2565858915834933
  0.1717284122038070  0.7169230073575336  0.8434809325443428
  0.6922406437204005  0.1230458340771786  0.3263477275651545
  0.1058859652493871  0.1564516432695560  0.7737654128060146
  0.2248525319317917  0.6644438735984718  0.3438676431305433
  0.6653935536370225  0.5967398178044797  0.2725136916069450
 
  0.00000000E+00  0.00000000E+00  0.00000000E+00
  0.00000000E+00  0.00000000E+00  0.00000000E+00
  0.00000000E+00  0.00000000E+00  0.00000000E+00
  0.00000000E+00  0.00000000E+00  0.00000000E+00
  0.00000000E+00  0.00000000E+00  0.00000000E+00
  0.00000000E+00  0.00000000E+00  0.00000000E+00
  0.00000000E+00  0.00000000E+00  0.00000000E+00
  0.00000000E+00  0.00000000E+00  0.00000000E+00
  0.00000000E+00  0.00000000E+00  0.00000000E+00
  0.00000000E+00  0.00000000E+00  0.00000000E+00
  0.00000000E+00  0.00000000E+00  0.00000000E+00
  0.00000000E+00  0.00000000E+00  0.00000000E+00
  0.00000000E+00  0.00000000E+00  0.00000000E+00
  0.00000000E+00  0.00000000E+00  0.00000000E+00
