Rb1 Al2 F7                              
   1.00000000000000     
     5.7460886727200373    0.0166264010669739   -0.0208004188415165
    -0.0267727043571137    4.7235611491828537   -2.4546643623000084
     0.0049401457063724   -0.0413128020591681    5.3280344629112317
   Rb   Al   F 
     1     2     7
Direct
  0.5140775240211044  0.2988265496575173  0.5193283089095203
  0.0026327947142165  0.6557951007750087  0.1663638260464662
  0.0024742964890165  0.9455647762628483  0.8758826654731010
  0.2557411552413464  0.0438437433240918  0.7808406136491608
  0.0991982791008205  0.0206589066172314  0.2406470991649506
  0.1017335849541430  0.5830877561179346  0.8042810497120657
  0.8594772536005553  0.7997668128690606  0.5205561028711522
  0.7524539157375758  0.7995937202516411  0.0189116120468900
  0.2562089876236793  0.5608379462555544  0.2651927615852033
  0.8593270107374101  0.3003105865843697  0.0197905157287154
 
  0.00000000E+00  0.00000000E+00  0.00000000E+00
  0.00000000E+00  0.00000000E+00  0.00000000E+00
  0.00000000E+00  0.00000000E+00  0.00000000E+00
  0.00000000E+00  0.00000000E+00  0.00000000E+00
  0.00000000E+00  0.00000000E+00  0.00000000E+00
  0.00000000E+00  0.00000000E+00  0.00000000E+00
  0.00000000E+00  0.00000000E+00  0.00000000E+00
  0.00000000E+00  0.00000000E+00  0.00000000E+00
  0.00000000E+00  0.00000000E+00  0.00000000E+00
  0.00000000E+00  0.00000000E+00  0.00000000E+00
