Mg F  Pb F  Pb F                                                                                    
 1.000
    5.5230204852163878    0.0000000000000000    0.0000000000000000
   -0.6142343370042528    5.5757502774151249    0.0000000000000000
    0.0094514818631542    0.0222289887125565    5.9820703163356574
   F    Mg   Pb
    8    2    2
Direct
    0.3077563643455504    0.5400968194007875    0.6149867177009583      F1
    0.8572908639907837    0.6946790814399720    0.3023277819156647      F2
    0.3487259745597839    0.9363206624984740    0.3022613823413849      F3
    0.3485977351665497    0.4358095526695252    0.0708019584417343      F4
    0.8974016308784484    0.0917403399944305    0.6144967079162598      F5
    0.8565885424613953    0.1957041621208191    0.0716778412461281      F6
    0.8981313705444334    0.5905588865280152    0.7580834031105043      F7
    0.3055357336997986    0.0394816845655441    0.7599205970764161      F8
    0.1021452397108078    0.3150929510593414    0.8422981500625610     Mg1
    0.1032349467277527    0.8160693049430848    0.5313194990158081     Mg2
    0.6023376584053037    0.8150133490562438    0.9752550125122073     Pb1
    0.6027482151985168    0.3152222633361816    0.3966614007949829     Pb2
