Li3 Mn2 F7
1.0
   5.2458076477050781    0.0000000000000000   -0.0470608845353127
   2.0863842263809138    5.0344032590576191   -0.0276571102440368
   0.0000000000000000    0.0000000000000000    6.0842967033386230
Li Mn F
3 2 7
direct
   0.8872784972190857    0.0515927597880363    0.9213587045669557 Li
   0.9712989926338196    0.8189122676849365    0.4205638766288757 Li
   0.2055573016405106    0.2079293429851532    0.4228913784027100 Li
   0.5313530564308168    0.6672118902206421    0.6606847047805786 Mn
   0.5267307758331299    0.6702996492385864    0.1794686764478683 Mn
   0.3315642178058624    0.5121926069259644    0.4176044464111328 F
   0.1148219257593154    0.9712263941764832    0.1787691861391068 F
   0.8502176403999329    0.4811090826988220    0.4219245910644531 F
   0.1183687523007393    0.9674832224845887    0.6661939620971680 F
   0.5773741006851196    0.3968127965927124    0.9216841459274293 F
   0.7037442922592163    0.8159312605857849    0.9222593903541566 F
   0.5670208930969238    0.9572209715843201    0.4215837717056274 F
