Na2 Li1 Bi1 F6
1.0
   5.9547429084777832    0.0000000000000000   -0.0558608323335638
   3.2301874331242257    4.1219479436905093    2.7976753711700444
   0.0000000000000000    0.0000000000000000    5.7020711898803711
Na Li Bi F
2 1 1 6
direct
   0.7104346156120300    0.9236813783645630    0.8353650569915771 Na
   0.2098170816898346    0.9212798476219177    0.3380043208599092 Na
   0.9226204156875610    0.3404744565486908    0.6282950043678284 Li
   0.4220420122146606    0.3420860171318054    0.1283635199069977 Bi
   0.2913987934589386    0.1746312826871872    0.9105328917503359 F
   0.1211624741554260    0.8521653413772583    0.7372985482215881 F
   0.6394626498222351    0.8268944025039673    0.5126571655273438 F
   0.8115236759185791    0.1609567403793335    0.0075939418748021 F
   0.5429202318191527    0.4297512173652649    0.4306932091712952 F
   0.0368748269975185    0.4283095002174377    0.2576465308666229 F
