Be F  Rb F  Rb Li Be F                                                                              
 1.000
    5.4086979463954430    0.0000000000000000    0.0000000000000000
   -2.5528209434912519    6.0363888013367406    0.0000000000000000
   -0.6248665627613649   -1.9411866931576747    6.2204897174724731
   Be   F    Li   Rb
    2    7    1    2
Direct
    0.5439743995666502    0.8785067200660702    0.6254451274871826     Be1
    0.9745995402336117    0.8249030709266659    0.0903524756431580     Be2
    0.3112288117408752    0.7034691572189330    0.6817957758903503      F1
    0.8408989310264589    0.0122474180534482    0.0660937204957008      F2
    0.5590537786483765    0.1077447682619094    0.6270434856414795      F3
    0.7685087919235229    0.8197319507598874    0.5668323636054993      F4
    0.2838299274444580    0.0225186925381422    0.1012341827154160      F5
    0.6638064384460449    0.6333094835281371    0.0729068666696548      F6
    0.1097033843398093    0.6404518485069273    0.1014860495924950      F7
    0.4528831839561462    0.8111737966537474    0.0265873447060585     Li1
    0.7855609059333800    0.4015495479106903    0.3557281792163849     Rb1
    0.1899372786283493    0.2556209564208984    0.8255261182785034     Rb2
