Rb1 W1 F7                               
   1.00000000000000     
     4.6527979846864138    0.0085574699773861   -2.8805701090712943
    -0.0058200197249234    5.6116322036495747   -0.0078092334397820
    -0.0175470651980561    0.0070968412492669    5.8664819326324880
   Rb   W    F 
     1     1     7
Direct
  0.7770093152200443  0.4037799845239253  0.2721140323020185
  0.1358029719717110  0.9026042044385946  0.9466306777748591
  0.8102043379503479  0.6955984752083366  0.7848543826077822
  0.2268410990953842  0.6779273101279180  0.7566164761278316
  0.5595786289668678  0.9043769087477058  0.1577807089623663
  0.8086397224437434  0.1093463375250203  0.7828149913783983
  0.2201385120066485  0.1254954907581285  0.2259060059415309
  0.2233602441508115  0.1228284899036568  0.7511792085852442
  0.2227652994772481  0.6806568322869356  0.2276816527640602
 
  0.00000000E+00  0.00000000E+00  0.00000000E+00
  0.00000000E+00  0.00000000E+00  0.00000000E+00
  0.00000000E+00  0.00000000E+00  0.00000000E+00
  0.00000000E+00  0.00000000E+00  0.00000000E+00
  0.00000000E+00  0.00000000E+00  0.00000000E+00
  0.00000000E+00  0.00000000E+00  0.00000000E+00
  0.00000000E+00  0.00000000E+00  0.00000000E+00
  0.00000000E+00  0.00000000E+00  0.00000000E+00
  0.00000000E+00  0.00000000E+00  0.00000000E+00
