Rb2 Er1 F5
1.0
   4.4300522804260254    0.0000000000000000   -0.0090144025161872
  -2.2166196429461706    6.0810127340837994   -3.1305992603301998
   0.0000000000000000    0.0000000000000000    6.3124332427978516
Rb Er F
2 1 5
direct
   0.8296459913253784    0.9652605652809143    0.3845905065536499 Rb
   0.1672948896884918    0.6407986283302307    0.7248467206954956 Rb
   0.4979440271854401    0.3031483292579651    0.0550543591380120 Er
   0.6271920204162598    0.5594012141227722    0.9498845934867859 F
   0.3718463480472565    0.0490106195211411    0.6938458681106567 F
   0.6263388991355896    0.5587347149848938    0.4154982566833496 F
   0.9986619949340820    0.3026747703552246    0.0529383085668087 F
   0.3704198002815247    0.0468484684824944    0.1590259075164795 F
