K1 Sn1 F5                               
   1.00000000000000     
     5.4090711415611645   -0.0205193199408323    0.7107140720631214
     0.7474372061058987    4.8800769116131839   -0.7456086219378717
    -0.0275120646074509   -0.1104261937400749    4.9755618086199407
   K    Sn   F 
     1     1     5
Direct
  0.5544475889796249  0.3957616410963317  0.7000155018984325
  0.0741224450617324  0.9347519145479857  0.2423718185526410
  0.1247493724251546  0.2259582058005889  0.5353566106312815
  0.3033587688244487  0.5994505246174817  0.2501258668009881
  0.3064003935540749  0.9421746601217496  0.9083818782463987
  0.8049937856629900  0.7945556417312013  0.4551529105385482
  0.8071945938342979  0.1535070222369058  0.1044514182850949
 
  0.00000000E+00  0.00000000E+00  0.00000000E+00
  0.00000000E+00  0.00000000E+00  0.00000000E+00
  0.00000000E+00  0.00000000E+00  0.00000000E+00
  0.00000000E+00  0.00000000E+00  0.00000000E+00
  0.00000000E+00  0.00000000E+00  0.00000000E+00
  0.00000000E+00  0.00000000E+00  0.00000000E+00
  0.00000000E+00  0.00000000E+00  0.00000000E+00
