Na3 Sc1 F6
1.0
   5.0615921020507804    0.0000000000000000   -2.1450192928314213
  -2.0247972385028863    5.1606948412058742   -1.3085025548934937
   0.0000000000000000    0.0000000000000000    5.4787697792053223
Na Sc F
3 1 6
direct
   0.2594068944454193    0.4707331061363220    0.2592959105968475 Na
   0.0815779641270638    0.9700244665145874    0.4357304871082306 Na
   0.6361415982246399    0.4708839058876037    0.8816279172897339 Na
   0.4435629248619080    0.9705387353897095    0.0747129991650581 Sc
   0.8249368071556091    0.2075859457254410    0.1574508845806122 F
   0.6333439350128174    0.7462100386619568    0.2560340464115143 F
   0.3619331121444702    0.7333297729492188    0.6944699883460999 F
   0.0816544741392136    0.7321140766143799    0.0483201295137405 F
   0.2631440758705139    0.1934579461812973    0.8847322463989258 F
   0.4699455797672272    0.2070533484220505    0.4364926218986511 F
