Na6 Ti1 Fe1 F12
1.0
   5.4926924705505362    0.0000000000000000    0.0986942425370204
   0.0144250482139323    5.7357950019985147    0.0470108166337017
   0.0000000000000000    0.0000000000000000    7.9361324310302734
Na Ti Fe F
6 1 1 12
direct
   0.1225255653262138    0.0679709464311600    0.8036151528358459 Na
   0.1567030102014542    0.9503936767578125    0.3245138823986053 Na
   0.6218125820159912    0.4480738043785095    0.3092335164546967 Na
   0.1392907500267029    0.5094051957130432    0.5641444325447083 Na
   0.6567720174789429    0.5711144208908081    0.8192982673645020 Na
   0.6394362449645996    0.0100383181124926    0.0640127733349800 Na
   0.1393902301788330    0.5095744729042053    0.0639739409089088 Ti
   0.6399623751640320    0.0089614577591419    0.5646821260452271 Fe
   0.2625101804733276    0.4485571384429932    0.8329047560691833 F
   0.9698186516761780    0.7936735749244690    0.9888809323310852 F
   0.8088687658309937    0.2896238565444946    0.6379629969596863 F
   0.9306611418724060    0.8320832848548889    0.6173491477966309 F
   0.3484425544738770    0.1865530461072922    0.5103527903556824 F
   0.3098326325416565    0.2267890125513077    0.1398905068635941 F
   0.4352295994758606    0.6867395639419557    0.1180507093667984 F
   0.5179945826530457    0.9491040706634523    0.7929401397705078 F
   0.7613443732261658    0.0700352340936661    0.3354424238204956 F
   0.8440533876419067    0.3328799307346344    0.0096667930483818 F
   0.4708124697208405    0.7288731336593628    0.4903685152530670 F
   0.0162488780915737    0.5714170336723328    0.2955405414104462 F
