Rb1 H1 F2                               
   1.00000000000000     
     3.6548474332961995   -0.0000779322021343   -0.0002073136823360
     0.0005762527078260    3.6602634125900555   -0.0043472183682549
    -0.0002146723632063   -0.0010768232031147    5.1495168822315796
   Rb   H    F 
     1     1     2
Direct
  0.2033614132779672  0.0061567227434229  0.9054385373817401
  0.7036774342146543  0.5061325822367186  0.4060875933569014
  0.7033208864183483  0.5066532579510090  0.6294070594071234
  0.7032234463973720  0.5058813974513410  0.1829269306275504
 
  0.00000000E+00  0.00000000E+00  0.00000000E+00
  0.00000000E+00  0.00000000E+00  0.00000000E+00
  0.00000000E+00  0.00000000E+00  0.00000000E+00
  0.00000000E+00  0.00000000E+00  0.00000000E+00
