Ba1 Bi1 F5
1.0
   4.0169906616210938    0.0000000000000000   -0.0018045300384981
  -0.0053594554575275    4.0075795576488336    0.0011062733829016
   0.0000000000000000    0.0000000000000000    6.7115764617919922
Ba Bi F
1 1 5
direct
   0.5896148681640625    0.8057430386543274    0.7399797439575195 Ba
   0.0894191190600395    0.3053760826587677    0.2392291277647018 Bi
   0.0892525389790535    0.3056696057319641    0.7388619184494019 F
   0.5895517468452454    0.3054986894130707    0.4326778352260590 F
   0.0893048122525215    0.8055127263069153    0.0480704195797443 F
   0.0892483443021774    0.8054519295692444    0.4327638447284698 F
   0.5890708565711975    0.3050226569175720    0.0476481355726719 F
