Li4 Fe1 F6                              
   1.00000000000000     
     4.0833323978915104    0.0131021955839108   -0.0190129644524075
    -0.0044143718795921    3.7203885407883122    1.5086685940994697
     0.0182533456963509   -0.4921408202822962    6.5104396135619078
   Li   Fe   F 
     4     1     6
Direct
  0.5499987767965171  0.1937398290915719  0.9289640242547285
  0.0493909298871302  0.7044204756673622  0.9148576846593260
  0.5495366504727816  0.5551839438333168  0.2067866288842445
  0.5498548546304622  0.8982004485021735  0.5246698126786797
  0.0498989792303202  0.3917082410404458  0.5358400203127791
  0.5501148884714698  0.0468578796298881  0.2262880570313229
  0.5495835243197369  0.7137125455240390  0.8920916060809800
  0.0499087000871766  0.2347133666960218  0.8511368246754651
  0.0503848285176716  0.5464505401511541  0.2266180532891655
  0.0495311224660587  0.8742195758978486  0.5707940928486628
  0.5500402677647193  0.3859730276710886  0.5475896805036476
 
  0.00000000E+00  0.00000000E+00  0.00000000E+00
  0.00000000E+00  0.00000000E+00  0.00000000E+00
  0.00000000E+00  0.00000000E+00  0.00000000E+00
  0.00000000E+00  0.00000000E+00  0.00000000E+00
  0.00000000E+00  0.00000000E+00  0.00000000E+00
  0.00000000E+00  0.00000000E+00  0.00000000E+00
  0.00000000E+00  0.00000000E+00  0.00000000E+00
  0.00000000E+00  0.00000000E+00  0.00000000E+00
  0.00000000E+00  0.00000000E+00  0.00000000E+00
  0.00000000E+00  0.00000000E+00  0.00000000E+00
  0.00000000E+00  0.00000000E+00  0.00000000E+00
