Rb2 Pr1 F6
1.0
   4.0816154479980469    0.0000000000000000   -1.1696013212203975
  -0.7298903645646260    5.7679610938301922   -2.6667792797088636
   0.0000000000000000    0.0000000000000000    7.5501089096069336
Rb Pr F
2 1 6
direct
   0.2278343290090561    0.3950074911117554    0.3271647989749908 Rb
   0.5606315732002258    0.7297508120536803    0.9965912699699402 Rb
   0.8942947983741760    0.0623774044215679    0.6623781919479370 Pr
   0.3951603174209595    0.2604065239429474    0.6623465418815613 F
   0.7547668218612671    0.1425433009862900    0.3797773718833923 F
   0.3935354351997375    0.8642935156822205    0.6607734560966492 F
   0.7530655264854431    0.7002936601638793    0.3800327181816101 F
   0.0357802994549274    0.4246677160263062    0.9425203204154968 F
   0.0354729741811753    0.9817698597908021    0.9442265629768372 F
