Na K  F  K  F  Na F                                                                                 
 1.000
    4.3046096039787640    0.0000000000000000    0.0000000000000000
    2.1543841830365178    6.8091517663277683    0.0000000000000000
    2.1551853394087810    0.1896726982379616    6.5345032299179051
   F    K    Na
    5    3    2
Direct
    0.3685172200202941    0.0564095526933670    0.6396181583404541      F1
    0.6310433745384214    0.3736293613910676    0.7994967699050902      F2
    0.7339168787002562    0.9374355077743530    0.0302701368927956      F3
    0.8370800614356995    0.5009539723396302    0.2604333162307739      F4
    0.0975280851125717    0.8203557729721069    0.4176573157310485      F5
    0.3608695566654205    0.6736367940902711    0.0394957177340984      K1
    0.1078797653317451    0.1989410519599915    0.0217825472354889      K2
    0.2337687462568281    0.4373286962509156    0.5302243828773499      K3
    0.6113358736038205    0.8369218707084658    0.3749100565910339     Na1
    0.8561396002769470    0.0363311693072319    0.6863502264022826     Na2
