Cs1 Rb2 Tb1 F7
1.0
   6.9400820732116699    0.0000000000000000   -0.1897326856851579
  -3.4344780325849902    5.3232897554479104   -3.3219394683837891
   0.0000000000000000    0.0000000000000000    6.9256205558776855
Cs Rb Tb F
1 2 1 7
direct
   0.9964444041252135    0.0334918126463890    0.8742415904998779 Cs
   0.7499882578849792    0.5366658568382264    0.1290638595819474 Rb
   0.2513257563114166    0.5348666310310364    0.6289286017417908 Rb
   0.5281826853752136    0.0334697924554348    0.4071687459945679 Tb
   0.6052047014236450    0.7934605479240417    0.4809433221817017 F
   0.1934358328580856    0.7511996626853943    0.3895758390426636 F
   0.8453853726387024    0.2806345820426941    0.7254679203033447 F
   0.4678830504417419    0.3065590858459473    0.6718061566352844 F
   0.7937347888946533    0.3143925964832306    0.3514125049114227 F
   0.2885797917842865    0.0368644855916500    0.1705151349306107 F
   0.5183839797973633    0.7563282847404481    0.0734874457120896 F
