K3 Sc1 F6
1.0
   5.8261618614196768    0.0000000000000000    0.1166655719280248
   0.9906367168929008    5.7666913875803827   -0.1344381123781196
   0.0000000000000000    0.0000000000000000    5.7756233215332031
K Sc F
3 1 6
direct
   0.3270981013774872    0.8437623381614685    0.9687771201133728 K
   0.3271927535533906    0.3437302112579346    0.4690053761005402 K
   0.8261006474494934    0.3440789282321930    0.9690490961074829 K
   0.8267694115638733    0.8435530662536620    0.4686267971992493 Sc
   0.6326757669448853    0.0346977710723877    0.2248405814170837 F
   0.6042139530181885    0.6188697814941405    0.4727796912193298 F
   0.6211267709732056    0.0484548620879650    0.7117280364036560 F
   0.0306012835353613    0.6394574046134949    0.2261061072349548 F
   0.0198781341314316    0.6529462933540344    0.7125738859176636 F
   0.0499670431017876    0.0678629949688911    0.4671246111392975 F
