F  Na Pb Sn
 1.0000000000000000
     7.1529815887606008    0.0000000000000000    0.0000000000000000
    -1.2625223082044590    7.1239168703977906    0.0000000000000000
    -1.1701746221807114   -1.5690130723072706    7.1115036004092191
 F   Na  Pb  Sn 
  13   1   3   3
Cartesian
  3.5531048541438475  5.5290895120846786  4.4818456807212854
  3.6405560971447160 -0.8749619548881815  7.1016068817842495
  4.7550765471104119  4.6185500543772982  1.9086439459442874
 -0.0405834061764587  0.0548098293940442  1.5388211661317290
  0.9826829541475373  6.3825442255390445  2.8808594261056917
  3.3995694563049028  1.6910628286536098  2.4332624386125392
  4.6917840841068514  1.7544280237652188  6.6287490583267399
  2.5645434074566205  5.3335695530273775  0.5198387840720123
  0.9781114841925288  0.3497092247958413  5.4383041080385341
 -0.1100070088320087  3.6718878714214509  3.6499558621100978
  2.1625403671895560  2.7774687076971283  4.9772326542095122
  5.9311953304677596  1.1795863844532548  4.0761107363599969
  1.1942732782237320  2.5238717015068661  1.1370696213454869
 -1.3446149528306333  5.9654058405998667  3.6760146496254018
  5.8854609824697208  2.3229143830212640  1.7451502432742894
  2.3030169952653958  4.1520967768592865  2.8391894000004290
  3.5308154857034264  0.4977166458816413  4.8727597082279344
 -0.0289835468344710  2.2818119462717532  5.5925802516439882
  3.4317766208621610  4.2384641903671483  7.0261424948149420
  2.1921867593407027  0.5014496628272515  1.0091287401021378
