H  Ca Rb F  H  F  Ca H  F  H  F  H  F                                                               
 1.000
    6.4861924889056723    0.0000000000000000    0.0000000000000000
    1.3083318053297326    6.3094970197182718    0.0000000000000000
   -0.2503242522710658   -2.2783518209926710    6.1026302992499266
   Ca   F    H    Rb
    2   10    5    1
Direct
    0.0275109708309173    0.4307594597339631    0.7603992223739624     Ca1
    0.2624213099479675    0.2890110611915588    0.2172315120697021     Ca2
    0.0710309892892838    0.1071144938468933    0.8834142088890076      F1
    0.6755235791206358    0.4480113089084625    0.8218308091163635      F2
    0.7378844618797302    0.8436952829360961    0.3346028029918670      F3
    0.8784468770027160    0.8269390463829038    0.8418681621551514      F4
    0.4344589710235596    0.9237725138664244    0.1568145155906677      F5
    0.6187110543251036    0.3524225652217865    0.2774865329265594      F6
    0.3934904932975767    0.3024294078350067    0.8778186440467833      F7
    0.2451597154140472    0.5104455947875977    0.5611686706542969      F8
    0.9563632607460020    0.2522705495357513    0.3878579139709473      F9
    0.0434763021767139    0.5922347903251649    0.1485438793897629     F10
    0.5800845026969911    0.8795481324195862    0.2283195257186889      H1
    0.5414670705795287    0.3769871890544891    0.8517098426818848      H2
    0.8953688740730285    0.7154734134674071    0.2365467101335526      H3
    0.7736476063728328    0.2969401478767395    0.3234673142433167      H4
    0.9669407010078428    0.9601031541824340    0.8625534176826475      H5
    0.4832921922206879    0.8113844394683839    0.6695214509963989     Rb1
