Li3 As1 F8                              
   1.00000000000000     
     5.2172813088745578    0.1452277112597196   -2.2036881795486387
    -2.4417205199272125    4.6881023931943453   -2.0414558099322684
     0.0703256757125047   -0.1484309129383085    5.6685388941768169
   Li   As   F 
     3     1     8
Direct
  0.8063077144813737  0.4724177321967842  0.3938797190305525
  0.6099485979713851  0.9721928411732769  0.6975634708638603
  0.4160918788195820  0.4727973933302883  0.0054153837005904
  0.1104669384904935  0.9728193287187897  0.1993365869147599
  0.1107505167225391  0.6879503179549384  0.9143843456796533
  0.6094373502393038  0.2573160992015800  0.9848247903909666
  0.4880239448836229  0.1491913454800303  0.4012892721235483
  0.7331917151365777  0.7960478432941880  0.9982277134169535
  0.1343115870002956  0.7958805690050018  0.3991185631461035
  0.6113485858477862  0.6866447077512047  0.4137193406717969
  0.0866234420334335  0.1496360989851196  0.9995483424834323
  0.1098111048003038  0.2575871812151106  0.4841235051890795
 
  0.00000000E+00  0.00000000E+00  0.00000000E+00
  0.00000000E+00  0.00000000E+00  0.00000000E+00
  0.00000000E+00  0.00000000E+00  0.00000000E+00
  0.00000000E+00  0.00000000E+00  0.00000000E+00
  0.00000000E+00  0.00000000E+00  0.00000000E+00
  0.00000000E+00  0.00000000E+00  0.00000000E+00
  0.00000000E+00  0.00000000E+00  0.00000000E+00
  0.00000000E+00  0.00000000E+00  0.00000000E+00
  0.00000000E+00  0.00000000E+00  0.00000000E+00
  0.00000000E+00  0.00000000E+00  0.00000000E+00
  0.00000000E+00  0.00000000E+00  0.00000000E+00
  0.00000000E+00  0.00000000E+00  0.00000000E+00
