Cs3 Rb2 F5
1.0
   7.1750473976135254    0.0000000000000000   -1.1910760402679432
  -5.0881175420564650    5.0513237890991700   -1.2635955810546875
   0.0000000000000000    0.0000000000000000    7.3340730667114258
Cs Rb F
3 2 5
direct
   0.4351978302001953    0.3500949740409851    0.3387612700462341 Cs
   0.8339763283729553    0.1503374129533768    0.5382034778594971 Cs
   0.0359262004494667    0.5521366596221924    0.1369111984968185 Cs
   0.2333370447158813    0.9505692124366759    0.7368485331535339 Rb
   0.6333459615707397    0.7520229816436768    0.9367046952247620 Rb
   0.1362861841917038    0.2481398284435272    0.9348791241645813 F
   0.9361080527305605    0.8501403927803041    0.3367382586002350 F
   0.3344219923019409    0.6581091284751892    0.5463462471961975 F
   0.5294893383979797    0.0448186323046684    0.1287850290536881 F
   0.7324772477149963    0.4555855691432953    0.7396339178085327 F
