Cs3 Rb2 F5                              
   1.00000000000000     
     7.2291997929833895   -0.0394037256342615   -1.2265742640167994
    -5.1403505743789317    5.0790778891693327   -1.2174029962389048
    -0.0388056165668904    0.0241664703906413    7.3188757835054021
   Cs   Rb   F 
     3     2     5
Direct
  0.4343637682504809  0.3513153113156481  0.3376242289128829
  0.8345887208954311  0.1517955850384980  0.5394601668985696
  0.0324169070647272  0.5481962114226914  0.1342873190196681
  0.2344011262492799  0.9526951199682365  0.7395811567495013
  0.6335029131408231  0.7501499444663361  0.9357550145063838
  0.1389422173167730  0.2426385292944845  0.9311321444671079
  0.9346750900075975  0.8512792833574501  0.3371986730070891
  0.3391581721571401  0.6651582481600640  0.5574375691769886
  0.5275616162135228  0.0375187331004897  0.1180331020197603
  0.7309556493506441  0.4612078257199931  0.7433023768461285
 
  0.00000000E+00  0.00000000E+00  0.00000000E+00
  0.00000000E+00  0.00000000E+00  0.00000000E+00
  0.00000000E+00  0.00000000E+00  0.00000000E+00
  0.00000000E+00  0.00000000E+00  0.00000000E+00
  0.00000000E+00  0.00000000E+00  0.00000000E+00
  0.00000000E+00  0.00000000E+00  0.00000000E+00
  0.00000000E+00  0.00000000E+00  0.00000000E+00
  0.00000000E+00  0.00000000E+00  0.00000000E+00
  0.00000000E+00  0.00000000E+00  0.00000000E+00
  0.00000000E+00  0.00000000E+00  0.00000000E+00
