Ca F  Rb Y 
 1.0000000000000000
     6.2097954680999958    0.0000000000000000    0.0000000000000000
     3.1002637668510515    5.4172803962218579    0.0000000000000000
     3.0814733851221643    1.7538791529830298   10.7381069911747460
 Ca  F   Rb  Y  
   1   6   3   1
Cartesian
  6.9577010790232077  4.3879299553354114  4.3884024358071798
  6.1807774749802933  2.5138293363325892  5.4581542505844132
  7.7383662143851328  2.5415795830220334  3.2203252743598703
  5.7360638612771115  5.9962223740341010  5.4917551257726860
  8.9527642669329008  4.6681836238441301  5.4859288320693294
  4.9778408487307733  4.6387169331616018  3.2160731616257987
  5.0589144144172637  0.5555563153384018  3.2140688730690523
  3.8439988938073681  2.5727943391607293  1.6124315827120015
 10.0574482444427300  6.1706927861326122  9.6812904060739768
  3.8806846494239817  2.6059824279183053  7.0780219902577501
  6.9621910158503590  0.7765212498587245  4.3171485855255529
