F  H  Li Er F                                                                                       
 1.000
    3.7056596414464331    0.0000000000000000    0.0000000000000000
    1.8706944384286812    5.8359790154593423    0.0000000000000000
    0.0281348998326959    1.9956643759451269    5.0025810792947336
   Er   F    H    Li
    1    5    1    1
Direct
    0.9778289794921877    0.0370497703552246    0.2003630697727203     Er1
    0.7964169383049011    0.4017496109008788    0.9447754621505736      F1
    0.4046948850154877    0.1828207075595856    0.3656200170516968      F2
    0.1813887506723404    0.6187248826026917    0.2583648562431335      F3
    0.5122401118278503    0.9697172045707704    0.0072190864011645      F4
    0.0795313119888306    0.8387302756309510    0.6258140206336974      F5
    0.2793506085872651    0.4253991842269897    0.3181561529636383      H1
    0.6311119794845582    0.7399774193763733    0.7923336029052734     Li1
