Rb2 Er1 F5                              
   1.00000000000000     
     4.3786784057777721    0.0002770207778384   -0.0046078829194705
    -2.1937618041302138    6.1851487328345405   -3.2248772071035057
     0.0064383453269336   -0.0058005917969299    6.4864926594235515
   Rb   Er   F 
     2     1     5
Direct
  0.8252429080436646  0.9558505963163273  0.3811842171289801
  0.1727082382356257  0.6504415873155170  0.7284169707876890
  0.4985119740232974  0.3033175421676841  0.0543560545366106
  0.6262063065380092  0.5561682703874150  0.9506680674431107
  0.3714772089919020  0.0509049123779242  0.6988106533677303
  0.6242178214082555  0.5548043904816130  0.4100922993087908
  0.9982359874490581  0.3035024720907419  0.0540895793445067
  0.3727435263242105  0.0508875391984139  0.1580666788338202
 
  0.00000000E+00  0.00000000E+00  0.00000000E+00
  0.00000000E+00  0.00000000E+00  0.00000000E+00
  0.00000000E+00  0.00000000E+00  0.00000000E+00
  0.00000000E+00  0.00000000E+00  0.00000000E+00
  0.00000000E+00  0.00000000E+00  0.00000000E+00
  0.00000000E+00  0.00000000E+00  0.00000000E+00
  0.00000000E+00  0.00000000E+00  0.00000000E+00
  0.00000000E+00  0.00000000E+00  0.00000000E+00
