Na1 As1 F6                              
   1.00000000000000     
     4.4943958502250414   -0.0012708400580503    2.6058896130323230
     0.0140545400545504    4.9132210831017078   -0.0259748260456380
     0.0031451590421095    0.0101713194187243    5.2187059810535086
   Na   As   F 
     1     1     6
Direct
  0.4423703372769905  0.9869896788405007  0.1672166483964400
  0.1097669499275917  0.4870468467874333  0.8330242681429670
  0.1128905233880965  0.2785969507306957  0.1084226967099697
  0.8310637952198978  0.2767119429470353  0.8349861158649269
  0.8302278219095663  0.6964932130897167  0.1110772541620610
  0.3874266103441015  0.6960412308613415  0.8344475364494301
  0.1102788223360632  0.6962254722663088  0.5563391853769342
  0.3879696385658169  0.2782836124406823  0.5531211846191415
 
  0.00000000E+00  0.00000000E+00  0.00000000E+00
  0.00000000E+00  0.00000000E+00  0.00000000E+00
  0.00000000E+00  0.00000000E+00  0.00000000E+00
  0.00000000E+00  0.00000000E+00  0.00000000E+00
  0.00000000E+00  0.00000000E+00  0.00000000E+00
  0.00000000E+00  0.00000000E+00  0.00000000E+00
  0.00000000E+00  0.00000000E+00  0.00000000E+00
  0.00000000E+00  0.00000000E+00  0.00000000E+00
