Hf1 Bi1 F8                              
   1.00000000000000     
     5.2074849475490455   -0.1172572706424770    1.3521173294306565
     0.9623514647442032    5.1052919803592074    1.3465152660684379
    -0.1191443916998264   -0.1019992580651393    5.5301066392600182
   Hf   Bi   F 
     1     1     8
Direct
  0.7747738915757819  0.3388221607304689  0.2985688960335777
  0.2747031512504971  0.8387398147633269  0.7981015903236237
  0.0692531418951537  0.6315479894424222  0.6556265337151048
  0.5377978695562453  0.5293169089028370  0.0582172599158949
  0.0218853354872680  0.5910973367511085  0.1489041581316852
  0.5273678346822227  0.0866307688708910  0.4478376104812742
  0.9624166504714426  0.1092724651864850  0.0491172318860004
  0.5873317184011756  0.5680911685077433  0.5486786763111972
  0.0097255651580055  0.1493729911481125  0.5409903063142465
  0.4786422590824270  0.0470822708317880  0.9403027598041895
 
  0.00000000E+00  0.00000000E+00  0.00000000E+00
  0.00000000E+00  0.00000000E+00  0.00000000E+00
  0.00000000E+00  0.00000000E+00  0.00000000E+00
  0.00000000E+00  0.00000000E+00  0.00000000E+00
  0.00000000E+00  0.00000000E+00  0.00000000E+00
  0.00000000E+00  0.00000000E+00  0.00000000E+00
  0.00000000E+00  0.00000000E+00  0.00000000E+00
  0.00000000E+00  0.00000000E+00  0.00000000E+00
  0.00000000E+00  0.00000000E+00  0.00000000E+00
  0.00000000E+00  0.00000000E+00  0.00000000E+00
