Cs F  H  Rb
 1.0000000000000000
     7.9685765163573778    0.0000000000000000    0.0000000000000000
    -0.0015173014318695    6.3727213652762540    0.0000000000000000
    -4.3502364506240001   -3.1317203269096416    6.1050270135711999
 Cs  F   H   Rb 
   2   6   2   2
Cartesian
  3.5535360107086644 -2.2612421494422943  5.8005528548114649
 -0.2710324288199792  4.0702273854692121  3.8686741879420392
  5.7509618560488152  5.2344495514311404  0.8164522463895884
  1.9343462407127689  2.0183706324198551  2.7526911098454656
 -2.3633472074549142  2.4812876939732180  4.8560787266879339
  5.7110504110450684  2.9003085844493421  0.8451628250015143
 -2.3419455598159757 -0.6760553066342689  4.8422739089032758
  1.9030316163303749 -0.3502115788675574  2.7860223378558571
  5.8236874308338891  4.0756659088338241  0.7881844284608861
  1.8301710618392932  0.8250040878047634  2.8104101093698883
  2.9145595795315269  4.0370712582856347  0.7031466763103594
  4.7607427887477964  0.8969931165922356  2.8578465446812733
