Mg1 Sb1 F5
1.0
   4.9591689109802246    0.0000000000000000    2.7454535961151127
   1.6856885350273683    4.6913972543592370    2.7431879043579102
   0.0000000000000000    0.0000000000000000    5.6789712905883789
Mg Sb F
1 1 5
direct
   0.3434379398822784    0.8109971880912781    0.4410634338855743 Mg
   0.8513961434364319    0.3194664120674133    0.9282028675079346 Sb
   0.6248982548713684    0.6131464242935182    0.6365977525711060 F
   0.1040710583329201    0.5655712485313416    0.6896086335182190 F
   0.1435650587081909    0.0904944092035294    0.6392161250114441 F
   0.1415568888187408    0.0882303789258003    0.1646832823753357 F
   0.6189326047897339    0.6128929257392883    0.1624351143836975 F
