Cs2 Na1 As1 F6                          
   1.00000000000000     
     4.3563287339904440    0.0019519090182348   -3.4938162143778695
     0.0371602495473957    6.2163431745819677   -3.4061687001156953
    -0.0354346101240430   -0.0277801186657002    7.0655313652788845
   Cs   Na   As   F 
     2     1     1     6
Direct
  0.1051058300304398  0.7322740680443688  0.9857776014449892
  0.1053963267246102  0.7309046379501780  0.4851756793079018
  0.6047342195222972  0.2315725708260024  0.4857873415911941
  0.6045301765261305  0.2317290381901267  0.9855758325080716
  0.1343545654009368  0.2308615725023545  0.7508979182858081
  0.6035705190186198  0.4692963764037494  0.8830437369791880
  0.6045209165821347 -0.0055377332298038  0.0869228311706658
  0.0747324248568470  0.2315365145306535  0.2197950413652017
  0.6060205133934262 -0.0051972256223255  0.6530804891071715
  0.6027802234434827  0.4684184029488890  0.3186171150256015
 
  0.00000000E+00  0.00000000E+00  0.00000000E+00
  0.00000000E+00  0.00000000E+00  0.00000000E+00
  0.00000000E+00  0.00000000E+00  0.00000000E+00
  0.00000000E+00  0.00000000E+00  0.00000000E+00
  0.00000000E+00  0.00000000E+00  0.00000000E+00
  0.00000000E+00  0.00000000E+00  0.00000000E+00
  0.00000000E+00  0.00000000E+00  0.00000000E+00
  0.00000000E+00  0.00000000E+00  0.00000000E+00
  0.00000000E+00  0.00000000E+00  0.00000000E+00
  0.00000000E+00  0.00000000E+00  0.00000000E+00
