Li1 Bi1 F4                              
   1.00000000000000     
     3.9092085645917805   -0.0001940017573854    0.0023357853563189
     0.0010731925147326    3.9101648256816732    0.0022216048029196
    -0.0019885216107060    0.0003558972620267    5.4086742787627440
   Li   Bi   F 
     1     1     4
Direct
  0.3998227131320498  0.2271592910565642  0.1276311559606897
  0.8998870680120914  0.7271873750433755  0.6286813290263643
  0.4001596730425167  0.7269066203831366  0.8806988835193147
  0.9008637145466043  0.2271294752393351  0.3766602507960241
  0.9000033327213832  0.2270985487712078  0.8808360019139886
  0.4008240435130060  0.7271614545515469  0.3766369179014320
 
  0.00000000E+00  0.00000000E+00  0.00000000E+00
  0.00000000E+00  0.00000000E+00  0.00000000E+00
  0.00000000E+00  0.00000000E+00  0.00000000E+00
  0.00000000E+00  0.00000000E+00  0.00000000E+00
  0.00000000E+00  0.00000000E+00  0.00000000E+00
  0.00000000E+00  0.00000000E+00  0.00000000E+00
