Rb6 Nb2 O4 F8
1.0
   6.6928339004516593    0.0000000000000000    0.0171000193804506
  -0.0095409301146336    6.6917985611442283   -0.0069436961784947
   0.0000000000000000    0.0000000000000000    9.4040279388427734
Rb Nb O F
6 2 4 8
direct
   0.5732860565185547    0.7619866728782654    0.1385644525289536 Rb
   0.0609229430556297    0.7679065465927123    0.3918579518795013 Rb
   0.0605080053210258    0.2589755654335021    0.1361572742462158 Rb
   0.0574118085205555    0.2651903927326202    0.6372665762901306 Rb
   0.5667557716369629    0.7660634517669678    0.6392667889595032 Rb
   0.5659345984458923    0.2676927745342254    0.8851404786109924 Rb
   0.5446646213531494    0.2507109642028809    0.3705741763114929 Nb
   0.0826872363686562    0.7510388493537903    0.9063656926155090 Nb
   0.5682893395423889    0.2747883200645447    0.1784626841545105 O
   0.3520570099353790    0.0586323142051697    0.3983942866325378 O
   0.2767814397811890    0.5606023669242858    0.8815073370933533 O
   0.0592362880706787    0.7739064097404480    0.0989679396152496 O
   0.8513873815536499    0.9828173518180847    0.8829468488693237 F
   0.2767888009548187    0.9880760312080382    0.8847945928573608 F
   0.3497509360313416    0.4872750639915466    0.3915978372097015 F
   0.7756288051605225    0.4826179146766662    0.3930622935295105 F
   0.8460435271263123    0.5573422908782958    0.8846772909164429 F
   0.5667991638183594    0.2768501937389374    0.5997424125671387 F
   0.7790294885635376    0.0552763789892197    0.3909831047058105 F
   0.0589457228779793    0.7754789590835571    0.6752137541770935 F
