Bi Ca F  Li O  Tm
 1.0000000000000000
     5.5034570518604999    0.0000000000000000    0.0000000000000000
    -2.7473568677173708    4.7647500720914762    0.0000000000000000
     0.0419723885480273   -0.0235466914724757   10.0345010627672533
 Bi  Ca  F   Li  O   Tm 
   1   1  11   2   1   2
Cartesian
 -1.6634148251474956  4.3336037685737354  0.8911518213628280
 -1.7451889897924988  4.3216090827155238  6.0017589589660192
 -0.7683819801789761  2.6807899567854419  2.3527624984080697
  1.8256390121063604  4.2983001621533132  2.3845090511904483
  0.0372178190584259  1.1786446386187293  9.6504610033855496
  0.1293229728987181  4.2891495822502161  4.6436446756439640
  0.0905485877667445  1.2089111156740349  4.6431497455179267
 -0.8402501421762227  2.6594863255131305  7.3273140172292575
  2.8459514336724654  2.6504574603493261  9.6465314675208162
  1.9295271794522131  1.2426602056932872  2.3585866746435049
  1.9591716565394968  1.1842289912432291  7.3300347871910034
  1.8760367653253176  4.3497693175328918  7.3377485199227337
  2.7802727496149338  2.7129979027679068  4.6469988365464641
  1.0047028727592631  2.7472259848722786  3.5173359259631622
  3.7315394374941109  1.1060563928601346  8.4804587455929816
  0.1375528989624833  4.3432877773781113  9.6874147892915712
  0.9896969477846775  2.7573445899834534  8.4762510918930722
  3.7557863166256942  1.1459165848497215  3.5407974082459588
