Cs2 K1 Li1 Pr1 F6
1.0
   6.0837259292602530    0.0000000000000000    3.3696465492248544
   1.8223240940596943    5.6494898177912640    3.7542603015899667
   0.0000000000000000    0.0000000000000000    7.0208730697631836
Cs K Li Pr F
2 1 1 1 6
direct
   0.2520414888858796    0.6835467815399170    0.3124593794345855 Cs
   0.6644335985183716    0.2753059267997742    0.9009660482406616 Cs
   0.4576544761657715    0.9794124960899353    0.6083247065544128 K
   0.9577656984329225    0.9779569506645203    0.6084910631179808 Li
   0.9569257497787477    0.4786987304687500    0.1087023615837097 Pr
   0.1861978173255921    0.2505524158477783    0.8791158795356750 F
   0.7605205774307252    0.2020602971315384    0.3829222619533539 F
   0.7612409591674806    0.7561718821525574    0.8315865993499756 F
   0.1534820944070816    0.1997630149126053    0.3853675723075867 F
   0.7271733283996583    0.7070428133010864    0.3390097916126251 F
   0.1526209861040115    0.7556085586547852    0.8339626193046570 F
