Cs3 Pr1 F6                              
   1.00000000000000     
     4.8360928597543884   -0.1413085509965744   -3.8023479839557011
     0.3145436458750929    6.3782087107200240   -7.1674078767619349
    -0.0090908481785892    0.1837372159372805    8.5184205333636918
   Cs   Pr   F 
     3     1     6
Direct
  0.1466693040686019  0.4589291181759467  0.1520735023077833
  0.1448327104611232  0.4588351074617286  0.6513109604430584
  0.6448028938844375  0.9590389471195460  0.6524667047614336
  0.6463576422624332  0.9590090069697154  0.1526730856422877
  0.6253136724801875  0.7187559030282098  0.1477719255480328
  0.6666411374159216  0.1997368036268505  0.1572708682164889
  0.0736139903388068  0.7995261516432168  0.1603500934764772
  0.4385398165175883  0.7370167889141872  0.7057603593849336
  0.2202803307560535  0.1197175784111945  0.1466501098825751
  0.8498434881463097  0.1826281703892655  0.5994484636735307
 
  0.00000000E+00  0.00000000E+00  0.00000000E+00
  0.00000000E+00  0.00000000E+00  0.00000000E+00
  0.00000000E+00  0.00000000E+00  0.00000000E+00
  0.00000000E+00  0.00000000E+00  0.00000000E+00
  0.00000000E+00  0.00000000E+00  0.00000000E+00
  0.00000000E+00  0.00000000E+00  0.00000000E+00
  0.00000000E+00  0.00000000E+00  0.00000000E+00
  0.00000000E+00  0.00000000E+00  0.00000000E+00
  0.00000000E+00  0.00000000E+00  0.00000000E+00
  0.00000000E+00  0.00000000E+00  0.00000000E+00
