Tl1 H4 F5                               
   1.00000000000000     
     4.5944141431291081   -0.0607047840480012    0.7660342008624553
    -0.4812874763294701    6.0227483805693902    1.0944162231319461
     0.0261114412531134   -0.0682788222099606    5.3076528503148310
   Tl   H    F 
     1     4     5
Direct
  0.6669692927183212  0.5515242451447653  0.6809213753855005
  0.0761622235251540  0.1075133107095291  0.7779713282908495
  0.3525431009667142  0.8851108445321995  0.3160747855305215
  0.0772217016988729  0.8265186531977267  0.0597550370073289
  0.6037013905563511  0.2038638134063056  0.2761179843760165
  0.5404311045567614  0.9687718808531126  0.3608240971618955
  0.1115632084115208  0.2711727764601936  0.7187106976721196
  0.1405915618139917  0.7727588408047081  0.2718523861815723
  0.6539514001256826  0.3659648409543963  0.2208941457368193
  0.0257755544788449  0.8738728555353624  0.8655422184220514
 
  0.00000000E+00  0.00000000E+00  0.00000000E+00
  0.00000000E+00  0.00000000E+00  0.00000000E+00
  0.00000000E+00  0.00000000E+00  0.00000000E+00
  0.00000000E+00  0.00000000E+00  0.00000000E+00
  0.00000000E+00  0.00000000E+00  0.00000000E+00
  0.00000000E+00  0.00000000E+00  0.00000000E+00
  0.00000000E+00  0.00000000E+00  0.00000000E+00
  0.00000000E+00  0.00000000E+00  0.00000000E+00
  0.00000000E+00  0.00000000E+00  0.00000000E+00
  0.00000000E+00  0.00000000E+00  0.00000000E+00
