Na2 Sn1 F6
1.0
   4.7819180488586426    0.0000000000000000    0.0106540247797968
  -0.0092858932288642    4.8278962479140652   -2.8167610168457049
   0.0000000000000000    0.0000000000000000    5.5716476440429688
Na Sn F
2 1 6
direct
   0.9918746948242188    0.4440848827362060    0.3797702491283417 Na
   0.9916468858718872    0.1107318326830864    0.7151482701301575 Na
   0.4911659657955170    0.7770121693611145    0.0472557097673415 Sn
   0.2519911825656891    0.7775886654853820    0.3432053923606873 F
   0.2519239783287048    0.4812476933002471    0.7508758306503296 F
   0.7304741740226746    0.7769670486450195    0.7517175674438477 F
   0.7297108173370361    0.4822876155376434    0.0472001172602176 F
   0.2524409592151642    0.0723499357700348    0.0475096888840199 F
   0.7307197451591492    0.0738999098539352    0.3447331786155701 F
