Rb3 Ni4 F11
1.0
   5.8535485267639151    0.0000000000000000    0.9843632578849787
   2.9619795322562936    5.0529416754996701    0.9916586279869090
   0.0000000000000000    0.0000000000000000    9.7044553756713867
Rb Ni F
3 4 11
direct
   0.2747294306755066    0.5794653296470642    0.2036137133836746 Rb
   0.9897955656051635    0.2935515940189362    0.9284735918045044 Rb
   0.6973224282264709    0.0019570589065552    0.6880855560302734 Rb
   0.6303918361663817    0.9335799813270570    0.0785286203026772 Ni
   0.9160354137420653    0.2196380645036697    0.3067140281200409 Ni
   0.3381801247596741    0.6424959301948547    0.8444414138793945 Ni
   0.3775188922882080    0.6804734468460083    0.5595304369926453 Ni
   0.7853015065193175    0.5761407613754272    0.1941008865833282 F
   0.0818974599242211    0.8934841156005858    0.4384909868240356 F
   0.9801665544509885    0.7921054959297180    0.9535188078880310 F
   0.7775313258171080    0.0806700363755226    0.1919507831335068 F
   0.2728953659534454    0.0877532064914703    0.1940827965736389 F
   0.5888062119483948    0.3860218524932861    0.4382290542125702 F
   0.4867236018180847    0.7908438444137573    0.9556291103363037 F
   0.4866801798343658    0.2851203083992004    0.9547457098960876 F
   0.6547629833221436    0.5199319124221802    0.6984742283821106 F
   0.2162748277187347    0.9591864347457887    0.6985257267951965 F
   0.2130571901798248    0.5178712606430054    0.7017164230346680 F
