Rb3 Pb1 F5                              
   1.00000000000000     
     5.1863983942561553   -0.0599420088415552   -1.9800346832776718
    -0.8969353910198545    5.1405430326352439   -1.9788390477086211
     0.1201614512518318    0.1354719032605229    7.7173162704072391
   Rb   Pb   F 
     3     1     5
Direct
  0.6560060128695622  0.4303248473994584  0.3500289997685764
  0.1318573574982650  0.9539878763244392  0.3501035130316781
  0.9266503599697533  0.2217349548311645  0.8875256749617709
  0.3845950937637887  0.6801852137517876  0.7596549234362975
  0.1559764185660968  0.4542470848980448  0.3503354909083528
  0.4026967744935041  0.3175240361472005  0.8241538161333052
  0.6456407084977913  0.9454005301566397  0.0649598542307026
  0.0149955855785491  0.6931927101024756  0.8173899828183941
  0.6930640020380268 -0.0093851701225072  0.4897573480682387
 
  0.00000000E+00  0.00000000E+00  0.00000000E+00
  0.00000000E+00  0.00000000E+00  0.00000000E+00
  0.00000000E+00  0.00000000E+00  0.00000000E+00
  0.00000000E+00  0.00000000E+00  0.00000000E+00
  0.00000000E+00  0.00000000E+00  0.00000000E+00
  0.00000000E+00  0.00000000E+00  0.00000000E+00
  0.00000000E+00  0.00000000E+00  0.00000000E+00
  0.00000000E+00  0.00000000E+00  0.00000000E+00
  0.00000000E+00  0.00000000E+00  0.00000000E+00
