Ca5 Tb1 F14                             
   1.00000000000000     
     5.6166163711467449    0.0175483711160422    0.0682593442547788
     0.0243744219970660    5.3077051351015632   -1.6685187554847447
    -0.0186004806528406   -0.0128367279859030    9.1312195587445437
   Ca   Tb   F 
     5     1    14
Direct
  0.6554428044549584  0.1958928065008523  0.1280285152081148
  0.1524855599389025  0.6821484407540781  0.1308335151252603
  0.6186981760149538  0.5123007398042024  0.8005554069436260
  0.1196531870326769  0.0385757895223139  0.8001001754710798
  0.1900065073535821  0.3408026299828987  0.4746640359200339
  0.6954354843077274  0.8851754209549501  0.4790710233894132
  0.4099595116140837  0.1396425110956739  0.6332399776272020
  0.7437215473049341  0.8590338429563841  0.7329032076085400
  0.3096160987279885  0.4038923599357674  0.2459659555617460
  0.8072731050721847  0.5854646528400603  0.2563824559974468
  0.8972056165923742  0.0798672618853948  0.3229758061825914
  0.9652057540292617  0.9301484973691563  0.0083802010875139
  0.4662820738766730  0.8255841606580578  0.0116929150137656
  0.5636578559850041  0.5190552711981502  0.5039873028191547
  0.4092408537798932  0.9652215453262907  0.3239422761108536
  0.8972051364876574  0.2334096490117565  0.6318923637795398
  0.8926244539286101  0.3862086891062602  0.9550888408603648
  0.2447470198525278  0.6282784228456552  0.7408242498008006
  0.0658592028286688  0.7486824584375844  0.5074796660373747
  0.3937114211591142  0.3135561262455973  0.9521163121614979
 
  0.00000000E+00  0.00000000E+00  0.00000000E+00
  0.00000000E+00  0.00000000E+00  0.00000000E+00
  0.00000000E+00  0.00000000E+00  0.00000000E+00
  0.00000000E+00  0.00000000E+00  0.00000000E+00
  0.00000000E+00  0.00000000E+00  0.00000000E+00
  0.00000000E+00  0.00000000E+00  0.00000000E+00
  0.00000000E+00  0.00000000E+00  0.00000000E+00
  0.00000000E+00  0.00000000E+00  0.00000000E+00
  0.00000000E+00  0.00000000E+00  0.00000000E+00
  0.00000000E+00  0.00000000E+00  0.00000000E+00
  0.00000000E+00  0.00000000E+00  0.00000000E+00
  0.00000000E+00  0.00000000E+00  0.00000000E+00
  0.00000000E+00  0.00000000E+00  0.00000000E+00
  0.00000000E+00  0.00000000E+00  0.00000000E+00
  0.00000000E+00  0.00000000E+00  0.00000000E+00
  0.00000000E+00  0.00000000E+00  0.00000000E+00
  0.00000000E+00  0.00000000E+00  0.00000000E+00
  0.00000000E+00  0.00000000E+00  0.00000000E+00
  0.00000000E+00  0.00000000E+00  0.00000000E+00
  0.00000000E+00  0.00000000E+00  0.00000000E+00
