As F  Rb
 1.0000000000000000
     8.0041925014132715    0.0000000000000000    0.0000000000000000
     1.7317845714999485    6.6696189198513132    0.0000000000000000
    -3.8974674564304346    0.0644812169315013    6.7002453744712183
 As  F   Rb 
   1   8   5
Cartesian
  1.7379206791336368  1.9446530052452144  6.1566399040010431
  0.2203191570160357  0.6299913533348002  5.5101717953031875
  4.2291639410141135  3.2296674201507400  0.3615732657538824
  3.1340846674739731  0.6095863361570242  5.2536340169565632
  1.6273176606053463  3.0338872330960331  4.3489767525546306
  7.1677407193898430  3.1775821882227153  0.0873366521439380
  5.7503787355928226  0.7845074820870963  1.2705055407780192
  3.4114240788621926  6.5906370949244186  1.8821236965889463
  5.7131651377395993  3.9008065709693409  3.7291127923558922
  5.8442931993562066  5.2515933020270245  1.3712450508614344
  3.2786372471885614  5.2326169698741971  4.2382410180210828
 -0.3169655091887180  1.9045673034181427  2.8091987580632809
 -1.3921219992957345  5.2752748132520715  6.1540619981141420
  3.6877830990532554  1.9094721275869859  2.8022354169255577
