K3 H6 F9                                
   1.00000000000000     
     5.1376564721482154   -0.0134438797578199   -1.1170946437816198
    -1.5463236148842756    5.0920457970876027   -0.2421552839438565
     0.0040720974267740   -0.0795449454995993    9.4353779173492480
   K    H    F 
     3     6     9
Direct
  0.8627336495194537  0.4820995714984915  0.8135217002078342
  0.8721905138654960  0.0131698416202457  0.4692303027449523
  0.1525328506648859  0.9900134857533960  0.1280126342119797
  0.4702850737178149  0.5304337484743459  0.0681197963583407
  0.5222986888153910  0.4154652343186835  0.4649285926711951
  0.2594774916901118  0.6122568174958921  0.3898518146841924
  0.7347950626312764  0.3216930263521935  0.1484794077365844
  0.2554565761533198  0.1198666392890583  0.7829072155606525
  0.5330124479120285  0.9217745273631371  0.8408002127647923
  0.7189695632495907  0.1437206244789180  0.1920799710206402
  0.7284620639204519  0.4639450861766969  0.5235194567569450
  0.2360873340280566  0.2724788339158324  0.7216202549099453
  0.7275591742317283  0.5337004262513727  0.0861401915287198
  0.2942042001181314  0.9272373901006501  0.8557782906980429
  0.2680370336255088  0.8101791965101535  0.3938789499567109
  0.2654152126066883  0.5068353756351331  0.0581346617066231
  0.2805290002683669  0.3741044036169239  0.3911595521468750
  0.7280286844206784  0.9394731100875884  0.8265362453906930
 
  0.00000000E+00  0.00000000E+00  0.00000000E+00
  0.00000000E+00  0.00000000E+00  0.00000000E+00
  0.00000000E+00  0.00000000E+00  0.00000000E+00
  0.00000000E+00  0.00000000E+00  0.00000000E+00
  0.00000000E+00  0.00000000E+00  0.00000000E+00
  0.00000000E+00  0.00000000E+00  0.00000000E+00
  0.00000000E+00  0.00000000E+00  0.00000000E+00
  0.00000000E+00  0.00000000E+00  0.00000000E+00
  0.00000000E+00  0.00000000E+00  0.00000000E+00
  0.00000000E+00  0.00000000E+00  0.00000000E+00
  0.00000000E+00  0.00000000E+00  0.00000000E+00
  0.00000000E+00  0.00000000E+00  0.00000000E+00
  0.00000000E+00  0.00000000E+00  0.00000000E+00
  0.00000000E+00  0.00000000E+00  0.00000000E+00
  0.00000000E+00  0.00000000E+00  0.00000000E+00
  0.00000000E+00  0.00000000E+00  0.00000000E+00
  0.00000000E+00  0.00000000E+00  0.00000000E+00
  0.00000000E+00  0.00000000E+00  0.00000000E+00
