K2 S2 O3 F4
1.0
   5.5689377784729004    0.0000000000000000   -0.0037318523973220
   0.0333819961445866    4.7817376318479701    1.8803755044937143
   0.0000000000000000    0.0000000000000000    7.4369297027587891
K S O F
2 2 3 4
direct
   0.8972658514976500    0.1235323026776314    0.9570164680480957 K
   0.3930191397666931    0.4043145179748535    0.4174361526966095 K
   0.3971652686595916    0.6421111822128296    0.8940147757530212 S
   0.8922727108001708    0.9053816795349122    0.4873000979423523 S
   0.6115297079086304    0.6004884243011475    0.0142521383240819 O
   0.1816479861736298    0.6008008718490601    0.0138578694313765 O
   0.8948832750320433    0.0867398828268051    0.5749986171722412 O
   0.3975064456462860    0.3159564733505249    0.8338636755943298 F
   0.1140135377645492    0.9239608049392700    0.3481445610523224 F
   0.6707294583320618    0.9250006079673767    0.3475911319255829 F
   0.8947064876556395    0.6005454063415527    0.6088748574256897 F
