K1 Si1 Pb1 F9                           
   1.00000000000000     
     5.5908506817431514    0.0188204480631189   -0.0490920694751621
    -0.0428745070602307    4.6880724018836437   -0.5169458613192369
    -0.0056307592567429    0.3232772970385239    6.7268891488800113
   K    Si   Pb   F 
     1     1     1     9
Direct
  0.9712704786152008  0.9527434272933202  0.4707181235435864
  0.4716937253535265  0.4568803584380503  0.4751800940919384
  0.4682123899600551  0.4530580364921018  0.9738515930736341
  0.2580989331151504  0.3124851683846184  0.3122642644148280
  0.9774164021714451  0.6359241449784022 -0.0023699295333695
  0.6846560227116633  0.6013652536208937  0.6383702694456767
  0.9702133072542912  0.2774961941448855  0.9533969686287739
  0.4694542155093864  0.9553840457282239  0.9743720561389375
  0.4762278180305810  0.1655788815419587  0.6107024425675611
  0.2520618780510623  0.5880133846378310  0.6336671219685958
  0.4668975579903148  0.7480095415796928  0.3400820158738876
  0.6906336915349457  0.3253247950335333  0.3167737553330970
 
  0.00000000E+00  0.00000000E+00  0.00000000E+00
  0.00000000E+00  0.00000000E+00  0.00000000E+00
  0.00000000E+00  0.00000000E+00  0.00000000E+00
  0.00000000E+00  0.00000000E+00  0.00000000E+00
  0.00000000E+00  0.00000000E+00  0.00000000E+00
  0.00000000E+00  0.00000000E+00  0.00000000E+00
  0.00000000E+00  0.00000000E+00  0.00000000E+00
  0.00000000E+00  0.00000000E+00  0.00000000E+00
  0.00000000E+00  0.00000000E+00  0.00000000E+00
  0.00000000E+00  0.00000000E+00  0.00000000E+00
  0.00000000E+00  0.00000000E+00  0.00000000E+00
  0.00000000E+00  0.00000000E+00  0.00000000E+00
