Zr1 Zn2 F8                              
   1.00000000000000     
     5.3526271910781453    0.0149015683628720    1.4020590647004370
    -1.2719606137290884    5.0610604144042615   -1.5996990448226471
     0.0055068079213684    0.0036302050560950    5.5405575979760071
   Zr   Zn   F 
     1     2     8
Direct
  0.8150885498226906  0.3257042635095751  0.8176817728320692
  0.4950873706937224  0.7045363618124547  0.4938605144707401
  0.1864776653454960  0.0526774229629451  0.1873938704444510
 -0.0060853313130102  0.6891553342986368  0.0006114784173158
  0.8479466525998361  0.0001239353892368  0.4892936883181722
  0.5432620495207676  0.4212249555290453  0.1553081560779049
  0.4859413823512054 -0.0003675105768165  0.8469011852752895
  0.3658351198673461  0.9256243652183251  0.3615007394067989
  0.0034181875767587  0.1955002015256075  0.0081577785550410
  0.6499679663943624  0.4991792217207771  0.6498271887714211
  0.1549852851878245  0.4253474739051728  0.5509864688843495
 
  0.00000000E+00  0.00000000E+00  0.00000000E+00
  0.00000000E+00  0.00000000E+00  0.00000000E+00
  0.00000000E+00  0.00000000E+00  0.00000000E+00
  0.00000000E+00  0.00000000E+00  0.00000000E+00
  0.00000000E+00  0.00000000E+00  0.00000000E+00
  0.00000000E+00  0.00000000E+00  0.00000000E+00
  0.00000000E+00  0.00000000E+00  0.00000000E+00
  0.00000000E+00  0.00000000E+00  0.00000000E+00
  0.00000000E+00  0.00000000E+00  0.00000000E+00
  0.00000000E+00  0.00000000E+00  0.00000000E+00
  0.00000000E+00  0.00000000E+00  0.00000000E+00
