Y1 Sb1 F6                               
   1.00000000000000     
     5.3851927915354878   -0.0023865634572097    3.1106332726629380
     1.7993294630141976    5.0759428349472895    3.1147721571099174
     0.0040262238580200   -0.0039334635651874    6.2215959690031033
   Y    Sb   F 
     1     1     6
Direct
  0.6543962282133973  0.8112037942091210  0.0557463639808308
  0.1543237639855293  0.3112748537314480  0.5555754929027810
  0.9034482438057225  0.5619206332856415  0.8071425704198362
  0.4058067583033628  0.5623343886457020  0.3048296974273870
  0.9034312706789906  0.0599094407036954  0.8071688323234836
  0.9027266960466135  0.5625841062779628  0.3044502433591619
  0.4054151755054636  0.0597027404700392  0.8068593214037642
  0.4058823127082807  0.0593528423971543  0.3043112771873101
 
  0.00000000E+00  0.00000000E+00  0.00000000E+00
  0.00000000E+00  0.00000000E+00  0.00000000E+00
  0.00000000E+00  0.00000000E+00  0.00000000E+00
  0.00000000E+00  0.00000000E+00  0.00000000E+00
  0.00000000E+00  0.00000000E+00  0.00000000E+00
  0.00000000E+00  0.00000000E+00  0.00000000E+00
  0.00000000E+00  0.00000000E+00  0.00000000E+00
  0.00000000E+00  0.00000000E+00  0.00000000E+00
