Na1 Bi1 F4                              
   1.00000000000000     
     3.9698325171502642    0.0034306716599844   -0.0017116632103391
    -0.0076097201747004    5.6177693714769328   -3.9793958768100497
     0.0058570309915960    0.0032436780168849    3.9733980162160725
   Na   Bi   F 
     1     1     4
Direct
  0.8310824540824038  0.9437681593300186  0.7199204740412503
  0.3310594279975592  0.4438460159427166  0.7197240967735853
  0.3312805898357732  0.2050631061894040  0.9812090575268675
  0.3316238852649184  0.6826193422653337  0.4580536261498004
  0.8311916950223341  0.2052214800191217  0.4824492869002176
  0.8316737086040487  0.6819288123567685  0.9564911575352046
 
  0.00000000E+00  0.00000000E+00  0.00000000E+00
  0.00000000E+00  0.00000000E+00  0.00000000E+00
  0.00000000E+00  0.00000000E+00  0.00000000E+00
  0.00000000E+00  0.00000000E+00  0.00000000E+00
  0.00000000E+00  0.00000000E+00  0.00000000E+00
  0.00000000E+00  0.00000000E+00  0.00000000E+00
