Li2 Tb2 O1 F6
1.0
   3.5378270149230953    0.0000000000000000    0.9171379804611209
  -0.0791715087187271    5.8369092985220474    0.1054854318499573
   0.0000000000000000    0.0000000000000000    7.1239004135131836
Li Tb O F
2 2 1 6
direct
   0.2534143626689911    0.7833167314529420    0.2255613058805465 Li
   0.3434238731861115    0.2927676737308502    0.4639637172222137 Li
   0.8859748244285583    0.8747820854187013    0.7016897201538085 Tb
   0.2747928202152252    0.3394154906272889    0.9414079189300535 Tb
   0.3902273178100586    0.1148914545774460    0.6984502673149108 O
   0.8482186794281006    0.4848537445068359    0.7995303273200988 F
   0.4619688391685486    0.6682975292205811    0.5600547194480896 F
   0.2773779034614563    0.7428500652313232    0.9524798989295958 F
   0.7344024181365967    0.1046350300312042    0.0162998400628567 F
   0.0831542462110519    0.0098543716594577    0.3932519257068633 F
   0.2560840249061584    0.4606860578060151    0.2433502525091171 F
