Na2 Ta1 F7
1.0
   5.4588904380798340    0.0000000000000000    0.0979456156492234
   0.2110295404410669    6.2455131002692958    0.0696902722120283
   0.0000000000000000    0.0000000000000000    6.2964425086975098
Na Ta F
2 1 7
direct
   0.9242472648620605    0.0642594397068024    0.9355599880218506 Na
   0.8327240347862244    0.5534570217132568    0.4382696151733398 Na
   0.9967637658119202    0.0236900392919779    0.4354292750358582 Ta
   0.1882383227348328    0.7399566173553467    0.4379812479019165 F
   0.8294426202774048    0.2547703981399536    0.2394363433122635 F
   0.8071682453155518    0.8495177626609802    0.2287878245115280 F
   0.8203272223472595    0.2495211660861969    0.6299071311950682 F
   0.2318637222051620    0.0793554186820984    0.2064524888992310 F
   0.2313741594552994    0.0912786945700645    0.6538538336753845 F
   0.8096815943717957    0.8463826179504395    0.6493266820907593 F
