F  Ho Rb
 1.0000000000000000
     4.4042668805173912    0.0000000000000000    0.0000000000000000
    -0.5918038440448852    5.7533275755831852    0.0000000000000000
    -2.2071047078889969   -1.5690524591028414    7.5366906983404327
 F   Ho  Rb 
   7   2   1
Cartesian
  3.1474389472760884  3.2243018433671793  0.8710751003318331
  0.9824937162669509  0.5540523362190560  5.2110120850521611
 -1.3050844214159667  0.7479160219414469  7.1901367655545929
 -0.4779032088531399  5.6420546460917747  0.2642756803361022
 -0.5333956148078971  3.5403089016660934  6.4812598681254325
  0.8697026941411907  3.3986160671458596  2.8480781625585077
  2.3757334301984137  0.4250556687829739  1.5791235766609695
  0.9664195011705590  4.2055972048075319  0.9377881833794304
  0.8730521956481277 -0.2421870264584098  7.1210208514020561
 -1.2781884563962600  1.9811561098564370  4.0279784628759847
