Li2 Mn2 F6                              
   1.00000000000000     
     4.7136159489862477   -0.0021091125554917    0.7113644595000952
     2.4151134773655816    4.3488154060044328   -0.6517701271618425
    -0.0105941521923674    0.1331355779368188    5.1137737304159057
   Li   Mn   F 
     2     2     6
Direct
  0.1259156732661881  0.4913631269368082  0.1023378561029494
  0.9477262181598566  0.7558526623317522  0.6474817393620304
  0.4337052641907453  0.9151771429970059  0.1547785711795985
  0.6343913194126669  0.3740540803420814  0.6220393939051282
  0.8486610570750346  0.5105943404595881  0.8684016704522345
  0.0289359845442701  0.0008210146774792  0.4110632141886918
  0.3858071733113195  0.2988442049151720  0.3761541878556167
  0.7041905874762763  0.6434732340599281  0.3937010659453880
  0.2626631316668652  0.7202355706296470  0.8869731946099237
  0.5428777571470070  0.1107755386523343  0.8550316262229438
 
  0.00000000E+00  0.00000000E+00  0.00000000E+00
  0.00000000E+00  0.00000000E+00  0.00000000E+00
  0.00000000E+00  0.00000000E+00  0.00000000E+00
  0.00000000E+00  0.00000000E+00  0.00000000E+00
  0.00000000E+00  0.00000000E+00  0.00000000E+00
  0.00000000E+00  0.00000000E+00  0.00000000E+00
  0.00000000E+00  0.00000000E+00  0.00000000E+00
  0.00000000E+00  0.00000000E+00  0.00000000E+00
  0.00000000E+00  0.00000000E+00  0.00000000E+00
  0.00000000E+00  0.00000000E+00  0.00000000E+00
