Na6 Li2 Y1 F11                          
   1.00000000000000     
     5.6187720509235977    0.0022175408165841    1.3073947536642088
     1.4668197221961181    5.6028942746569319   -0.5136450915181829
    -0.0086082668533975    0.0193891158385026    8.6080549319555839
   Na   Li   Y    F 
     6     2     1    11
Direct
  0.0194466833881288  0.0176819949109640  0.8396449083827812
  0.4528396731506621  0.1233715089746669  0.0119854726649473
  0.7133978411095545  0.5740882279828425  0.9364390989637347
  0.8979775739796265  0.2202007477916812  0.5339240417839460
  0.4417193485216387  0.2815333059899402  0.3726465663819974
  0.3066031504173082  0.4593922803520855  0.7496107237573042
  0.4227763319008275  0.8553968067540703  0.4628847864643336
  0.8113710642047103  0.6988224016617219  0.5486384872955166
  0.0859587470566795  0.7098018304701238  0.1808943318788016
  0.2585961289684754  0.9540573710018992  0.2995097463768768
  0.5449446099930839  0.5649800996514688  0.5306461438776156
  0.0459009585033798  0.4892077693665542  0.3779060826767839
  0.3099568291676850  0.8007165954036507  0.9532841166778617
  0.4609908439392762  0.4677547316014306  0.1523839235090773
  0.6728766604048498  0.2478163787118243  0.7941375782459670
  0.7555692487193555  0.9331125284316484  0.4042494213244406
  0.0794287561722002  0.3978407757218355  0.0067102467293043
  0.9439494660166550  0.6876064978892431  0.7181787829329443
  0.7980736970830180  0.8985408673265342  0.0724142609199260
  0.2524179605076403  0.1218551043480655  0.6142784480144879
 
  0.00000000E+00  0.00000000E+00  0.00000000E+00
  0.00000000E+00  0.00000000E+00  0.00000000E+00
  0.00000000E+00  0.00000000E+00  0.00000000E+00
  0.00000000E+00  0.00000000E+00  0.00000000E+00
  0.00000000E+00  0.00000000E+00  0.00000000E+00
  0.00000000E+00  0.00000000E+00  0.00000000E+00
  0.00000000E+00  0.00000000E+00  0.00000000E+00
  0.00000000E+00  0.00000000E+00  0.00000000E+00
  0.00000000E+00  0.00000000E+00  0.00000000E+00
  0.00000000E+00  0.00000000E+00  0.00000000E+00
  0.00000000E+00  0.00000000E+00  0.00000000E+00
  0.00000000E+00  0.00000000E+00  0.00000000E+00
  0.00000000E+00  0.00000000E+00  0.00000000E+00
  0.00000000E+00  0.00000000E+00  0.00000000E+00
  0.00000000E+00  0.00000000E+00  0.00000000E+00
  0.00000000E+00  0.00000000E+00  0.00000000E+00
  0.00000000E+00  0.00000000E+00  0.00000000E+00
  0.00000000E+00  0.00000000E+00  0.00000000E+00
  0.00000000E+00  0.00000000E+00  0.00000000E+00
  0.00000000E+00  0.00000000E+00  0.00000000E+00
