Cs1 Na1 Y1 F5                           
   1.00000000000000     
     4.4353765359516748    0.0020051028938434   -0.0193217898351086
    -0.0069076730719504    4.2871290620367430   -1.4057786374344345
    -0.0009508744548929    0.1402287320385510    7.7014505094907486
   Cs   Na   Y    F 
     1     1     1     5
Direct
  0.1410132346045351  0.8970028849576722  0.9617987608156878
  0.6380926020893736  0.2778788645846941  0.7250828282066976
  0.6452030482068222  0.5903170312380916  0.3528848381821400
  0.6421800385966629  0.4420533040732094  0.0592122059181374
  0.6448802963992922  0.0913961044655462  0.3554075559704645
  0.6389733677980933  0.7359634055012632  0.6434367826815822
  0.1440202221533745  0.5734666547475178  0.3255165877781047
  0.1382453505283948  0.2809629283604528  0.7319968577049717
 
  0.00000000E+00  0.00000000E+00  0.00000000E+00
  0.00000000E+00  0.00000000E+00  0.00000000E+00
  0.00000000E+00  0.00000000E+00  0.00000000E+00
  0.00000000E+00  0.00000000E+00  0.00000000E+00
  0.00000000E+00  0.00000000E+00  0.00000000E+00
  0.00000000E+00  0.00000000E+00  0.00000000E+00
  0.00000000E+00  0.00000000E+00  0.00000000E+00
  0.00000000E+00  0.00000000E+00  0.00000000E+00
