Cd Er F  K 
 1.0000000000000000
     5.3630729625636828    0.0000000000000000    0.0000000000000000
    -0.0452733783063171    5.9236489293006720    0.0000000000000000
     0.0108540866350065    0.0195622816451438   10.3459011431079375
 Cd  Er  F   K  
   2   2  12   2
Cartesian
  2.4833337514542193  4.8648333157996460  4.3143242902160397
  2.5023184011659763  1.9266704211471033  9.0974265060767383
  5.1537174153512719  4.8815728907533238  7.6279827430230878
  2.5104204640106538  1.9041086926463109  2.3177916469638982
  1.4093366974225996  1.1099270591229011  0.6392138073594954
  3.6199534593058234  2.9901319684527849  3.8380369416033404
  1.3861732357894800  0.8075624083756247  3.8214859945492852
  3.9013201093130259  3.0722527152082519  7.6882499091975642
  3.8996962324972220  5.5779470752401528  5.9457603820407288
  1.3344766776017083  3.6921761985712589  2.6560596247393189
  1.1001055143819407  0.7577775767689069  7.6947205620576486
  1.0598405443542362  4.1836977063080019  5.9532910799085776
  3.5904080924196138  2.7080243317284363  0.6334372866470945
  1.0815128403007936  3.7957079775726208  9.0357891130219503
  3.6733460048253592  0.1085646617127815  2.6511112063770077
  3.9200146635839421  0.0480709726669643  9.0476672904155393
  5.2002740015452513  1.9057387941741004  5.5346843013184799
  5.1688254523382913  4.8605605362763278  0.9158896012422180
