Mg1 Fe2 P2 O7 F2
1.0
   5.5890989303588876    0.0000000000000000   -0.6339460611343383
   0.3740967342857845    4.8989165563653794    1.8643929958343510
   0.0000000000000000    0.0000000000000000    6.8125042915344238
Mg Fe P O F
1 2 2 7 2
direct
   0.9364831447601318    0.9339648485183715    0.5411527752876282 Mg
   0.1931097507476807    0.3056364953517914    0.0990704819560051 Fe
   0.4531355202198029    0.6638602018356323    0.6558626294136047 Fe
   0.6840699911117554    0.5325374007225037    0.2987778484821320 P
   0.7042455673217773    0.0735866725444794    0.8983463048934935 P
   0.7306247353553772    0.6346598267555236    0.4858274459838867 O
   0.6681568622589111    0.9823194146156310    0.7064836025238037 O
   0.4313669502735138    0.4383866190910339    0.2776642441749573 O
   0.8879573941230774    0.3214627206325530    0.3081666529178619 O
   0.9526023268699646    0.1742171198129654    0.9208726882934569 O
   0.4978644549846649    0.2791981399059295    0.8911738991737365 O
   0.6944959163665771    0.8005539178848267    0.0981699004769325 O
   0.2160413265228271    0.9074741601943970    0.3942954242229462 F
   0.1583175063133240    0.7048513889312743    0.8017947673797607 F
