Cs F  I  Pb
 1.0000000000000000
     8.2652922920906988    0.0000000000000000    0.0000000000000000
     0.1676117129723989    8.5292521780177797    0.0000000000000000
    -0.1365165770732605    0.2842762375980021    8.4403893252705853
 Cs  F   I   Pb 
   7  10   1   2
Cartesian
  1.2184228278692970  6.3872503088860926  7.5524463438129548
  2.8472566148011587  7.9553203055039488  3.2926872052895342
  4.0617266733215951  3.8941852403344015  1.7498997891655235
  1.1269524018606620  3.1406502740078497  4.5061731248051435
  5.3172109529045235  4.4493895371108039  5.7398949404327784
  6.4522565857218535  0.3603485409491799  5.3236246450168636
  7.8327748475490440  1.7881397611171339  0.8444998351392885
  8.0743980827566002  5.8274947384203779  4.9941463135362252
  5.2055102340979911  2.5285952935830953  7.9181438781150577
  2.5124645650733415  1.4966649587352692  1.3080988647418619
  5.3516712594523961  6.5807098331256899  3.7644094453423880
  3.7615050170968636  1.7606243589608430  5.0830190428529178
  8.1774740497258893  8.3933511577738145  2.9648054185230941
  0.7555872884991728  0.9036981592363659  6.7111998426993589
  1.5132433324254237  5.3428580147354978  2.1761538343382512
  6.7862468732237176  3.7130383759272205  3.0492225630717731
  2.4843442386763979  3.7339212058197400  7.1519130943100082
  5.2888217237463726  7.1344692222856478  8.3253062972096163
  7.4519961388843443  6.0735722899338560  2.7376941030674873
  3.1135667414354087  1.5106799465778149  7.4656000465456680
