K3 Tb1 F6                               
   1.00000000000000     
     3.8981503879006301    0.0001059357725808    1.1941137862576707
    -1.1492137157913866    6.2767379233196428   -3.1847110326750117
    -0.0631035679832097   -0.0134118727021958    7.1611951742357833
   K    Tb   F 
     3     1     6
Direct
  0.8398624269908027  0.2461633146210666  0.4965517097930129
  0.5735303396547480  0.6948010188577696  0.4776615934897694
  0.0874638131060892  0.1576539599847205  0.9104225997462568
  0.2913548538441915  0.7121936739726458  0.0596283622960519
  0.3411772817639338  0.4701342645970568  0.7177724439605071
  0.0852582011474733  0.4978622185382413  0.2575486659048221
  0.4865212697236053  0.9190652418637681  0.8755886514204095
  0.2251849202344267  0.9426303687371904  0.4218229246176685
  0.7212813478025685  0.5084331777577871  0.9945239627701665
  0.8480620314303837  0.9063697321429051  0.1386995352701536
 
  0.00000000E+00  0.00000000E+00  0.00000000E+00
  0.00000000E+00  0.00000000E+00  0.00000000E+00
  0.00000000E+00  0.00000000E+00  0.00000000E+00
  0.00000000E+00  0.00000000E+00  0.00000000E+00
  0.00000000E+00  0.00000000E+00  0.00000000E+00
  0.00000000E+00  0.00000000E+00  0.00000000E+00
  0.00000000E+00  0.00000000E+00  0.00000000E+00
  0.00000000E+00  0.00000000E+00  0.00000000E+00
  0.00000000E+00  0.00000000E+00  0.00000000E+00
  0.00000000E+00  0.00000000E+00  0.00000000E+00
