Mo1 F6                                  
   1.00000000000000     
     4.8354256188990403    0.0091957540645994   -1.8189640709695480
    -2.4339687245539450    4.4218145103065289    0.9142069917964525
    -0.0077049245805616   -0.0032442231694241    5.0966434965174932
   Mo   F 
     1     6
Direct
  0.3341264241507678  0.9920452760776022  0.3048811028735537
  0.4084267497375201  0.6973882961965570  0.5310716633071063
  0.1139728492647555  0.9900362215146298  0.5239146175957990
  0.7038198427265389  0.2865331674299466  0.5317413619384901
  0.5532725641894987  0.9923191295335373  0.0857627989514531
  0.2604571017355399  0.2872536362149526  0.0790161118365913
  0.9647426904796961  0.6974067976661821  0.0776539583275001
 
  0.00000000E+00  0.00000000E+00  0.00000000E+00
  0.00000000E+00  0.00000000E+00  0.00000000E+00
  0.00000000E+00  0.00000000E+00  0.00000000E+00
  0.00000000E+00  0.00000000E+00  0.00000000E+00
  0.00000000E+00  0.00000000E+00  0.00000000E+00
  0.00000000E+00  0.00000000E+00  0.00000000E+00
  0.00000000E+00  0.00000000E+00  0.00000000E+00
