Mg1 Fe1 F4                              
   1.00000000000000     
     3.0696320223910547   -0.0005468767892497    0.0006511641920287
     0.0011937842900069    4.6452639069911568    0.0445344965689345
    -0.0012425994189768   -0.0120562033247497    4.6427568636478611
   Mg   Fe   F 
     1     1     4
Direct
  0.3916654541458720  0.4280254526959049  0.4263143781595728
  0.8916482482502407  0.9281251363087788  0.9264588280144137
  0.8918928081621422  0.2320593860892159  0.6232910385829293
  0.3916869295874106  0.7348462880298885  0.7331712783057215
  0.3916415002720274  0.1208479597669517  0.1195168815074065
  0.8918146646657725  0.6241519730836100  0.2298849760299317
 
  0.00000000E+00  0.00000000E+00  0.00000000E+00
  0.00000000E+00  0.00000000E+00  0.00000000E+00
  0.00000000E+00  0.00000000E+00  0.00000000E+00
  0.00000000E+00  0.00000000E+00  0.00000000E+00
  0.00000000E+00  0.00000000E+00  0.00000000E+00
  0.00000000E+00  0.00000000E+00  0.00000000E+00
