Rb2 Sb2 F8                              
   1.00000000000000     
     4.5488877182043037   -0.0001291633747903    1.3318144689571410
     0.0160877041157039    6.3683086031414957   -0.0084096843886270
    -0.0425741532478100   -0.0012676095165519    8.3712462670127863
   Rb   Sb   F 
     2     2     8
Direct
  0.4349282369962435  0.4766043315700113  0.4756263138275921
  0.0933508328536004  0.9768948747109816  0.1711221855280699
  0.7716497343410876  0.9796610353546429  0.6700330276954363
  0.6208545260361941  0.4802088347267122  0.9772468919598526
  0.9271268087882011  0.7484100306870121  0.4979709786297764
  0.6047226623575136  0.7063047828205247  0.1540986570633276
  0.4690821608412781  0.2346851015423951  0.8210041352523477
  0.9283893416974687  0.2045696735391645  0.4931956549131863
  0.1930776358600187  0.4815595784231548  0.0779644095466771
  0.6056878816230817  0.2491842351847544  0.1492426510040935
  0.4410136422992108  0.9785572193953579  0.5701159494731228
  0.4683096536862446  0.7335914339565672  0.8257368189899559
 
  0.00000000E+00  0.00000000E+00  0.00000000E+00
  0.00000000E+00  0.00000000E+00  0.00000000E+00
  0.00000000E+00  0.00000000E+00  0.00000000E+00
  0.00000000E+00  0.00000000E+00  0.00000000E+00
  0.00000000E+00  0.00000000E+00  0.00000000E+00
  0.00000000E+00  0.00000000E+00  0.00000000E+00
  0.00000000E+00  0.00000000E+00  0.00000000E+00
  0.00000000E+00  0.00000000E+00  0.00000000E+00
  0.00000000E+00  0.00000000E+00  0.00000000E+00
  0.00000000E+00  0.00000000E+00  0.00000000E+00
  0.00000000E+00  0.00000000E+00  0.00000000E+00
  0.00000000E+00  0.00000000E+00  0.00000000E+00
