Bi F  Na Sm
 1.0000000000000000
     6.4601588547317119    0.0000000000000000    0.0000000000000000
    -2.0966524032745308    6.1210974765128059    0.0000000000000000
    -4.0879391755297751   -1.7211297370602763    7.9283053153843799
 Bi  F   Na  Sm 
   1  12   3   2
Cartesian
  2.6777715807127280  4.3974366632963697  2.2502664579500484
 -4.1255406424721288  4.6329706693559931  4.6096100972928280
 -2.5808626504254977  1.6330965975494425  4.9369886088196600
  0.7734315987054909  1.1278304638903058  5.1772523425809478
 -0.7978614578578976  4.1481986158234090  4.9374280931741144
 -0.8507316040783151 -0.5649176633860227  7.6426707290734166
 -4.6210183775808114  3.2087630511227858  7.6451559422132851
  1.3059644266531389  2.5447866679395013  2.2309475763430986
  2.7275859097440276  4.3809146625397188  0.0480977673168742
 -2.0293214382339566  3.1403738723530372  2.0241874361516534
  2.7172578129200793 -0.2523077977998638  2.6149794016697205
 -0.3790590418646604  0.1842878116654194  2.2342871848731325
 -3.9750511841224352 -0.0981996666141386  7.2539038142504113
 -0.6992992951805544  2.1835130533806004  3.7305598711240848
  0.5099779476140562  1.3176394942323373  7.5314689007369999
 -2.6622182041493816  3.5816698364002648  6.2457224520568762
  2.5537289339113425 -0.1400911056666724  4.9829407148703879
  1.4524471748258139  0.6599371155893858  0.8697356388143681
