F  Ga Mg Na
 1.0000000000000000
     4.7642688765534977    0.0000000000000000    0.0000000000000000
     0.0110581001314623    5.8152008007550355    0.0000000000000000
     0.1100889437815649   -0.0006329945422485    5.2922901609021240
 F   Ga  Mg  Na 
   8   1   2   1
Cartesian
  4.4464535790757136  5.5840483524124958  1.2930307341930989
  4.4902738112793532  4.2184121720143803  4.2498489154983510
  4.3911584680065285  1.1329364774095461  4.0985396917755503
  4.0483440673774513  2.4577752850796735  1.3154752821758218
  1.8948298629921336  5.5844940421448381  3.3220407258269478
  2.2820192600707587  2.4676033736861669  3.3030323210471679
  1.8567210560121992  4.2239604098950769  0.3694822359544266
  1.9336297319531315  1.1297868924705239  0.5188621187367156
  0.8471351802217862  5.6598262505012977  4.9561667148059572
  3.2247995448677669  2.8132809246632111  4.9541743637116955
  3.1581611227065842  0.9782744746743269  2.3083335300355574
  0.7826354357785748  3.7789859550517546  2.3081376386439270
