K4 Cd2 F8
1.0
   6.3429393768310538    0.0000000000000000    3.9674618244171151
   2.0428754673345382    6.0939529458022914    3.6714255809783944
   0.0000000000000000    0.0000000000000000    7.4663667678833008
K Cd F
4 2 8
direct
   0.9507545232772827    0.0571313574910164    0.5889865756034851 K
   0.3379555344581605    0.9184979796409606    0.9758253097534180 K
   0.7240060567855835    0.7823802828788757    0.3618794381618500 K
   0.3378987908363343    0.4191102683544158    0.9749720096588135 K
   0.3379207849502563    0.4188680052757263    0.4754411578178406 Cd
   0.8381758928298950    0.4188104271888733    0.9754179120063782 Cd
   0.0894496440887451    0.6228656172752380    0.7259587049484253 F
   0.0483930446207523    0.2150741219520569    0.1738012135028839 F
   0.1381446421146393    0.6244685649871826    0.2628634572029114 F
   0.5864326357841493    0.2158483415842056    0.2236888110637665 F
   0.0897596478462219    0.2132745087146759    0.7260247468948364 F
   0.5856944918632507    0.6241715550422668    0.2256819903850555 F
   0.5366103053092957    0.2130414396524429    0.6886598467826843 F
   0.6271207928657532    0.6214986443519591    0.7776483297348022 F
