Sr2 Mg1 Zn1 F8
1.0
   5.1279606819152823    0.0000000000000000    0.0084742438048129
   0.0286301084285007    5.1373165588608858   -0.0049124900251625
   0.0000000000000000    0.0000000000000000    6.9994330406188965
Sr Mg Zn F
2 1 1 8
direct
   0.4032907783985138    0.1408835947513580    0.6365106701850891 Sr
   0.9044098854064941    0.6401354074478151    0.9123121500015259 Sr
   0.9039154052734375    0.6405045390129089    0.3896005451679230 Mg
   0.4044634103775024    0.1411945521831512    0.1606484055519104 Zn
   0.6166685223579407    0.3533258736133575    0.3708752393722534 F
   0.6975903511047363    0.8479223847389221    0.1836372464895249 F
   0.1111251786351204    0.4342901110649109    0.1832222938537598 F
   0.0814291685819626    0.4639278948307037    0.6201862096786499 F
   0.5818471908569336    0.3194622099399567    0.9271363615989685 F
   0.2251276671886444    0.9638319611549377    0.9274513125419617 F
   0.7268486022949219    0.8186576962471008    0.6197741627693176 F
   0.1921740770339966    0.9295900464057922    0.3717712163925171 F
