K1 Y3 F10
1.0
   5.1962013244628897    0.0000000000000000    2.4326140880584726
  -0.3414977265657024    6.6268788596976451    0.8967090249061586
   0.0000000000000000    0.0000000000000000    6.9221272468566895
K Y F
1 3 10
direct
   0.6500679850578308    0.7818629741668700    0.3728108704090119 K
   0.2248239070177078    0.2812632918357849    0.3722802698612213 Y
   0.0170213785022497    0.5207397341728210    0.9147290587425232 Y
   0.5605850219726562    0.0402554757893085    0.8292766213417053 Y
   0.3979875445365906    0.1245889514684677    0.5844781994819641 F
   0.2433152496814728    0.5364972949028015    0.5581954717636108 F
   0.8241912126541138    0.8105667233467102    0.9009819626808167 F
   0.8559516668319702    0.2959893345832824    0.7604961991310120 F
   0.4312093853950500    0.0269843302667141    0.1848064213991166 F
   0.8980252146720886    0.0414201468229294    0.4948815107345581 F
   0.2408751100301743    0.2650944292545318    0.9805849790573120 F
   0.6090328097343445    0.4373829364776611    0.1565733253955841 F
   0.0165947005152702    0.5178525447845458    0.2498687803745270 F
   0.3508764207363129    0.7502482533454895    0.8441235423088074 F
