Na2 Li2 Al3 F13                         
   1.00000000000000     
     5.4125347351505484    0.0155452048383521   -1.1188455444319423
    -2.0852854785219197    6.4765067191572712   -0.2534984669613164
    -0.0128273549729409    0.0280665792026194    7.0972393279293735
   Na   Li   Al   F 
     2     2     3    13
Direct
  0.2664592329328467  0.7947275110204701  0.1131132276762873
  0.5672842459010616  0.0896095499483724  0.7757215654077610
  0.7343469004987564  0.6046625907463907  0.8395741229849871
  0.8303635157086463  0.1550013360954405  0.3057083391803581
  0.2384757633085174  0.5387765571201102  0.6203042163112182
  0.1607103500565583  0.2640746043084001  0.9455526285510537
  0.6932226693512059  0.5978478834618027  0.3113907381736272
  0.1330939762212179  0.3172331155975601  0.4630919128536355
  0.0406249500622436  0.6790245618166847  0.4783187234310598
  0.0074191679330403  0.4607307858738651  0.7894204913353421
  0.9695825085129536  0.0742104245878749  0.7527577631476660
  0.3584681337191700  0.4929007499986517  0.1315921259476526
  0.8468817176408655  0.6256049581516715  0.1071824627257297
  0.6670792634161009  0.3444453451943460  0.3601772229441657
  0.3476613738924278  0.1063076249103494  0.0376636228611878
  0.5461754596776267  0.6183788752098266  0.5313470741352770
  0.6776788167958030  0.8571363667698920  0.2937741881149787
  0.9051623639789556  0.2064984093564771  0.0649295243046979
  0.4132147488594121  0.3812354365940963  0.7974143241704659
  0.4108367696629783  0.7535689398851896  0.7997463111212569
 
  0.00000000E+00  0.00000000E+00  0.00000000E+00
  0.00000000E+00  0.00000000E+00  0.00000000E+00
  0.00000000E+00  0.00000000E+00  0.00000000E+00
  0.00000000E+00  0.00000000E+00  0.00000000E+00
  0.00000000E+00  0.00000000E+00  0.00000000E+00
  0.00000000E+00  0.00000000E+00  0.00000000E+00
  0.00000000E+00  0.00000000E+00  0.00000000E+00
  0.00000000E+00  0.00000000E+00  0.00000000E+00
  0.00000000E+00  0.00000000E+00  0.00000000E+00
  0.00000000E+00  0.00000000E+00  0.00000000E+00
  0.00000000E+00  0.00000000E+00  0.00000000E+00
  0.00000000E+00  0.00000000E+00  0.00000000E+00
  0.00000000E+00  0.00000000E+00  0.00000000E+00
  0.00000000E+00  0.00000000E+00  0.00000000E+00
  0.00000000E+00  0.00000000E+00  0.00000000E+00
  0.00000000E+00  0.00000000E+00  0.00000000E+00
  0.00000000E+00  0.00000000E+00  0.00000000E+00
  0.00000000E+00  0.00000000E+00  0.00000000E+00
  0.00000000E+00  0.00000000E+00  0.00000000E+00
  0.00000000E+00  0.00000000E+00  0.00000000E+00
