Li3 Fe1 F6
1.0
   4.4458303451538077    0.0000000000000000    2.3526718616485605
   1.6062297323533126    4.1329769593280616    2.3325338363647465
   0.0000000000000000    0.0000000000000000    5.4162797927856445
Li Fe F
3 1 6
direct
   0.1913150399923325    0.8306016921997070    0.6392594575881958 Li
   0.6961691379547119    0.3342358171939850    0.1273764669895171 Li
   0.9014060497283936    0.5432698130607605    0.5033246874809265 Li
   0.3922835886478424    0.0325557850301266    0.0342485494911670 Fe
   0.6052337288856506    0.6429023742675781    0.3024404048919678 F
   0.2998960316181183    0.2467650771141052    0.3024231791496277 F
   0.1256253570318222    0.4197773933410645    0.8190760016441345 F
   0.4887846112251282    0.7654287815093995    0.8182099461555481 F
   0.0009171552956104    0.9400305747985840    0.3028108775615692 F
   0.7795352339744568    0.1287740319967270    0.8179005384445190 F
