F  K  Sn
 1.0000000000000000
     5.5800038039051900    0.0000000000000000    0.0000000000000000
    -0.0640029894014615    5.5682179298557273    0.0000000000000000
    -2.7384121610353374   -2.7363138131036280    5.8979413667714562
 F   K   Sn 
   6   2   1
Cartesian
  0.2097833388749281  1.3195548802944641  0.6854109642108308
  2.8852748284904641  4.0270202191297235  0.6996236967193242
  0.6541968725706119 -1.8998609894704241  5.0969611809889797
 -0.3093616760519223  4.5045242115265083  2.1813067403738224
  3.3960441191056656  0.8487458073925351  2.1821268941590914
  2.5361402419524959  1.7517812338005521  5.1052354885945856
  1.5502171373690030  2.6817318845805973  2.6395097509036116
 -1.2024980610845792 -0.0765521274493582  4.6459391740475713
  4.3683972454025906 -0.1114204420885845  0.6922365561074384
