As3 Pb2 F13                             
   1.00000000000000     
     4.7199457061561789    0.0218201724461747    0.8468795829173072
     0.9337161836403232    6.9622239405996389    1.1747728594597708
     0.0346145024814042   -0.0565950099234598    9.6603953745661677
   As   Pb   F 
     3     2    13
Direct
  0.0844554279182188  0.2758184240983771  0.8209113937615512
  0.7753252652245286  0.6831415162471677  0.0828575099089178
  0.1755483225656333  0.5743711437495147  0.4431710293767489
  0.5641064520645003  0.9554184217224208  0.6115381221218533
  0.3355710638524127  0.1883297877729981  0.1819552096247030
  0.3993538413267810  0.3252920786483865  0.6935317237152170
  0.0674594679592951  0.0888790217170050  0.6812369615274407
  0.2161332310330480  0.4153243519453649  0.9434060255782170
  0.4123120671539138  0.7261454659160779  0.1741870864069304
  0.2598719021679597  0.7570210158155815  0.5651998726398278
  0.8976688301853180  0.5153968716407615  0.5874099499345158
  0.6809671189782027  0.7111045766975167  0.9101486366564763
  0.6767130801709126  0.3863883395445441  0.1154283035289849
 -0.0639153050057920  0.7789728212145127  0.3772958907579855
  0.7698386608761890 -0.0474061006058971  0.0731871848295528
  0.2837475829491072  0.0664383530230063  0.9072949491270799
  0.5122193703818813  0.1240152530284783  0.3973030360432505
  0.0254203579730983  0.4262395183444871  0.3276974305346432
 
  0.00000000E+00  0.00000000E+00  0.00000000E+00
  0.00000000E+00  0.00000000E+00  0.00000000E+00
  0.00000000E+00  0.00000000E+00  0.00000000E+00
  0.00000000E+00  0.00000000E+00  0.00000000E+00
  0.00000000E+00  0.00000000E+00  0.00000000E+00
  0.00000000E+00  0.00000000E+00  0.00000000E+00
  0.00000000E+00  0.00000000E+00  0.00000000E+00
  0.00000000E+00  0.00000000E+00  0.00000000E+00
  0.00000000E+00  0.00000000E+00  0.00000000E+00
  0.00000000E+00  0.00000000E+00  0.00000000E+00
  0.00000000E+00  0.00000000E+00  0.00000000E+00
  0.00000000E+00  0.00000000E+00  0.00000000E+00
  0.00000000E+00  0.00000000E+00  0.00000000E+00
  0.00000000E+00  0.00000000E+00  0.00000000E+00
  0.00000000E+00  0.00000000E+00  0.00000000E+00
  0.00000000E+00  0.00000000E+00  0.00000000E+00
  0.00000000E+00  0.00000000E+00  0.00000000E+00
  0.00000000E+00  0.00000000E+00  0.00000000E+00
