F  Na Zn
 1.0000000000000000
     5.5864722003972602    0.0000000000000000    0.0000000000000000
     0.0061379732641652    6.0878764136827010    0.0000000000000000
     0.0014900528352853    2.4667741869314708    5.5935260522117893
 F   Na  Zn 
   8   4   2
Cartesian
  3.9827793103811122  7.8989546472529382  5.5623187995266505
  5.5105204176717546  6.9013616152334754  2.2827590402674174
  2.2967525294166520  1.8035913944699107  0.9857608403750703
  1.1849811618122623  3.0305250278425850  3.7190978251059978
  2.7035856686343052  5.6985879738472018  4.1372472721957809
  1.5955486263111835  4.4299873580009317  1.2721775601623104
  4.3960581608572156  3.8041333998368088  2.2744113677277498
  5.0768135939349746  4.9093334177128147  5.5849383315760859
  0.5926431593171440  5.2568958932033620  3.6233919828167926
  3.2964655192852952  3.4614073281151625  4.2483615350494599
  3.4041418223273840  6.2224242310413391  2.0815518930701207
  0.5059459405998900  6.0979645794877522  0.1803654713591305
  0.5502178645719665  2.6716831307147562  1.8380411032483315
  3.3401199157911088  3.5785986964258476  0.4235530714266211
