Ba1 Bi1 F5
1.0
   4.0201387405395508    0.0000000000000000    0.0071514993906023
   0.0061095856268920    4.0185862828272061    0.0038241087459028
   0.0000000000000000    0.0000000000000000    6.7161498069763184
Ba Bi F
1 1 5
direct
   0.8618254661560059    0.7281464338302612    0.5559939146041870 Ba
   0.3616438210010529    0.2275902628898621    0.0563959032297134 Bi
   0.8620806336402893    0.2276560217142105    0.8632784485816957 F
   0.3622866570949554    0.7280437946319580    0.8638702034950257 F
   0.3618307709693909    0.7279581427574158    0.2481416910886765 F
   0.3615308105945587    0.2284095883369446    0.5559251904487610 F
   0.8617129325866699    0.2275536656379700    0.2482001185417176 F
