Na3 Mg4 F11
1.0
   6.1031246185302734    0.0000000000000000   -2.5493879318237305
  -1.7478872930453815    5.9934139754568463   -0.4454971253871922
   0.0000000000000000    0.0000000000000000    6.4122886657714844
Na Mg F
3 4 11
direct
   0.8392455577850342    0.2429450005292892    0.1930921375751495 Na
   0.4213756620883942    0.2750163972377777    0.6606013774871826 Na
   0.9555541276931763    0.1345996260643005    0.7075050473213196 Na
   0.3334044218063354    0.0126511165872216    0.1917743235826492 Mg
   0.5959553718566895    0.6531507372856139    0.3606936335563660 Mg
   0.8664453625679016    0.6685444712638855    0.9251050353050232 Mg
   0.2447678297758102    0.7271567583084105    0.6907154917716980 Mg
   0.2446110993623733    0.6782562732696532    0.0340739563107490 F
   0.9985505938529968    0.9915121197700499    0.0458225384354591 F
   0.3632180094718933    0.0494571104645729    0.8967020511627197 F
   0.7408897876739502    0.5956884622573853    0.1532180309295654 F
   0.5472034811973572    0.6773605942726135    0.6862907409667969 F
   0.4468865990638733    0.3363266885280609    0.3162016868591309 F
   0.1146078482270241    0.4041406512260436    0.5597417354583740 F
   0.9184660911560059    0.7387350797653198    0.6345798969268799 F
   0.6462068557739258    0.9769021868705748    0.3481593132019043 F
   0.8015292286872864    0.3495573997497558    0.8457456827163696 F
   0.2621365487575531    0.9069338440895081    0.4472770988941193 F
