Cs1 Rb1 Li2 F4
1.0
   3.4646043777465820    0.0000000000000000    0.9831729531288153
  -0.0197017890719366    6.2007095146043136   -0.0131090134382260
   0.0000000000000000    0.0000000000000000    6.6162796020507812
Cs Rb Li F
1 1 2 4
direct
   0.0092195272445679    0.4110105335712433    0.5524764657020569 Cs
   0.2864756882190704    0.9100195765495301    0.9970104098320007 Rb
   0.7350053787231445    0.4098827540874481    0.0983427464962006 Li
   0.5605252385139465    0.9095273613929750    0.4490367472171783 Li
   0.3088723123073578    0.4103191196918488    0.9513002634048462 F
   0.9812684655189514    0.9114582538604737    0.6077426075935364 F
   0.6505386233329773    0.1547871083021164    0.2690980434417725 F
   0.6492727994918823    0.6635996699333192    0.2689013779163361 F
