K2 Ba1 Bi1 F7
1.0
   4.4605975151062012    0.0000000000000000   -0.0021032451186324
   0.0042611331222321    6.2451820141640946    0.0188635159283864
   0.0000000000000000    0.0000000000000000    8.2076330184936523
K Ba Bi F
2 1 1 7
direct
   0.0633966922760010    0.2184794098138809    0.7584763169288635 K
   0.0644569694995880    0.2153504937887192    0.2435285449028015 K
   0.5634373426437378    0.7176779508590698    0.0016517639160156 Ba
   0.5619929432868958    0.7167990803718566    0.5012762546539307 Bi
   0.5631803870201111    0.4788649678230286    0.7065209150314331 F
   0.5636985898017883    0.9558979272842407    0.2953010797500610 F
   0.0633974224328995    0.7170206308364868    0.5007066726684570 F
   0.5627749562263489    0.9545900225639343    0.7051115632057190 F
   0.5643391013145447    0.4785544276237487    0.2964033782482147 F
   0.0637826994061470    0.4782123565673828    0.0017539479304105 F
   0.0627960637211800    0.9568086862564087    0.0012094974517822 F
