Y1 Tl3 F6                               
   1.00000000000000     
     5.9381696323797897    0.0001554409188197   -3.3718025922048844
    -1.9167186955325488    5.6094435186807150   -3.3728154365324476
    -0.0203729252414689   -0.0298639181032426    6.8188760344571318
   Y    Tl   F 
     1     3     6
Direct
  0.5629374741622803  0.4916895563138448  0.2777222252825642
  0.0629813925050223  0.9920240405216091  0.2778152235008871
  0.8128327103830936  0.2414690506086242  0.7780882530704190
  0.3130702046482594  0.7421366473079619  0.7771334043487322
  0.7879823729458402  0.2665523384294592  0.2771782116760851
  0.3376017159589173  0.7166224023375699  0.2781386938067351
  0.7870412453950876  0.7168093303629073  0.7262652957540394
  0.7877563716855586  0.7162389448760272  0.2770826275570773
  0.3380507222504300  0.2661941193246212  0.2777491373746413
  0.3395068898808791  0.2675841045042815  0.8290402755406541
 
  0.00000000E+00  0.00000000E+00  0.00000000E+00
  0.00000000E+00  0.00000000E+00  0.00000000E+00
  0.00000000E+00  0.00000000E+00  0.00000000E+00
  0.00000000E+00  0.00000000E+00  0.00000000E+00
  0.00000000E+00  0.00000000E+00  0.00000000E+00
  0.00000000E+00  0.00000000E+00  0.00000000E+00
  0.00000000E+00  0.00000000E+00  0.00000000E+00
  0.00000000E+00  0.00000000E+00  0.00000000E+00
  0.00000000E+00  0.00000000E+00  0.00000000E+00
  0.00000000E+00  0.00000000E+00  0.00000000E+00
