Cs2 K1 F3                               
   1.00000000000000     
     4.1493427622437986   -0.0101052393038121   -0.0097887024155084
    -2.0660692073048246    3.6072765750067606   -0.0105340493906780
     0.0386138263402755    0.0525318715224479   10.2774034497614881
   Cs   K    F 
     2     1     3
Direct
  0.6172024849568095  0.7899965108786022  0.6364534316837792
  0.2851632960122980  0.1224454181299712  0.9938818027972066
  0.9525505065065807  0.4568196543393546  0.3147212197969749
  0.9485582987138083  0.4560474138067789  0.8149575439508160
  0.6172631937706340  0.7886627607239447  0.1714458606180099
  0.2847324839978470  0.1241146147352552  0.4586707057236402
 
  0.00000000E+00  0.00000000E+00  0.00000000E+00
  0.00000000E+00  0.00000000E+00  0.00000000E+00
  0.00000000E+00  0.00000000E+00  0.00000000E+00
  0.00000000E+00  0.00000000E+00  0.00000000E+00
  0.00000000E+00  0.00000000E+00  0.00000000E+00
  0.00000000E+00  0.00000000E+00  0.00000000E+00
