Cs1 Rb2 Zr1 O1 F5
1.0
   6.0111074447631845    0.0000000000000000   -3.4204149246215811
  -1.9838153976310338    5.6699098545609665   -3.4309527873992911
   0.0000000000000000    0.0000000000000000    6.9506201744079590
Cs Rb Zr O F
1 2 1 1 5
direct
   0.4523595571517944    0.0850559994578362    0.0192447789013386 Cs
   0.1969490051269531    0.3292928636074066    0.5082728862762451 Rb
   0.6962519288063049    0.8295628428459166    0.5082933902740479 Rb
   0.9315856099128722    0.5644026398658752    0.9780432581901549 Zr
   0.7388023734092712    0.3718524575233459    0.5924966335296631 O
   0.1578368544578552    0.7909866571426390    0.4324921071529388 F
   0.7417435646057129    0.3752700686454773    0.0230200607329607 F
   0.1649459004402161    0.7976371645927429    0.0219687540084124 F
   0.7410989403724670    0.7977229952812195    0.0221221502870321 F
   0.1643363684415817    0.3735725581645966    0.0212278869003058 F
