K1 Y3 F10                               
   1.00000000000000     
     5.1105745181668611   -0.0251763456985537    2.3654782846369691
    -0.3971264239145811    6.5579600677617522    0.9346755181490769
    -0.0350877827687001    0.0533900622129568    6.8063571234096223
   K    Y    F 
     1     3    10
Direct
  0.6620070864716038  0.7808921385489394  0.3703999699434892
  0.2236529698148021  0.2806447238663642  0.3727365465423291
  0.0173126880520235  0.5226076416923712  0.9103902573873381
  0.5558556443991034  0.0386695113151371  0.8333174481354149
  0.3913728217870388  0.1260063105288977  0.5894276622997329
  0.2521814294353562  0.5357621994409764  0.5544221802373934
  0.8253945883579251  0.8133447325501958  0.9033916244590376
  0.8476248247192755  0.2993836801094348  0.7625681992383426
  0.4333977596268813  0.0261480993069345  0.1892841027762610
  0.8929720850290044  0.0438538552585528  0.4974278680760792
  0.2406071451597268  0.2632169487047142  0.9783340424843056
  0.6076948424102658  0.4355105716078805  0.1522560217124202
  0.0163629591316928  0.5155381603649845  0.2480271783912198
  0.3541207629431333  0.7491678479225352  0.8421041109984063
 
  0.00000000E+00  0.00000000E+00  0.00000000E+00
  0.00000000E+00  0.00000000E+00  0.00000000E+00
  0.00000000E+00  0.00000000E+00  0.00000000E+00
  0.00000000E+00  0.00000000E+00  0.00000000E+00
  0.00000000E+00  0.00000000E+00  0.00000000E+00
  0.00000000E+00  0.00000000E+00  0.00000000E+00
  0.00000000E+00  0.00000000E+00  0.00000000E+00
  0.00000000E+00  0.00000000E+00  0.00000000E+00
  0.00000000E+00  0.00000000E+00  0.00000000E+00
  0.00000000E+00  0.00000000E+00  0.00000000E+00
  0.00000000E+00  0.00000000E+00  0.00000000E+00
  0.00000000E+00  0.00000000E+00  0.00000000E+00
  0.00000000E+00  0.00000000E+00  0.00000000E+00
  0.00000000E+00  0.00000000E+00  0.00000000E+00
