Rb1 Y1 Be2 F8                           
   1.00000000000000     
     5.1442892669582161   -0.0359030286187790    0.7126469508439068
     0.0240683620968517    7.0950032592900998    0.4099696336743336
    -0.1869544036594840    0.0096007444287110    5.6489855946915437
   Rb   Y    Be   F 
     1     1     2     8
Direct
  0.0999809761407675  0.7544962643265427  0.2638796427215712
  0.0695706079637399  0.2274746283113855  0.7980185081531902
  0.4859001620645104  0.5083363275253228  0.6936138027085124
  0.6137223435156310  0.8788050877294232  0.7956009615892041
  0.5251384223689295  0.7239692126912527  0.6196369678192497
  0.2976298681724794  0.4684068110808458  0.9279186773133202
  0.9744320747945850  0.1516379103412793  0.1502831257392019
  0.8748842506646036  0.9756879897269375  0.6789286275918205
  0.7585976819094137  0.4195273937653478  0.7085497970488157
  0.3302795246860248  0.4055933311761382  0.5153023975660501
  0.3980597778990195  0.0346709580146093  0.7957782336885822
  0.6400706494203823  0.7851947457572007  0.0365501806980632
 
  0.00000000E+00  0.00000000E+00  0.00000000E+00
  0.00000000E+00  0.00000000E+00  0.00000000E+00
  0.00000000E+00  0.00000000E+00  0.00000000E+00
  0.00000000E+00  0.00000000E+00  0.00000000E+00
  0.00000000E+00  0.00000000E+00  0.00000000E+00
  0.00000000E+00  0.00000000E+00  0.00000000E+00
  0.00000000E+00  0.00000000E+00  0.00000000E+00
  0.00000000E+00  0.00000000E+00  0.00000000E+00
  0.00000000E+00  0.00000000E+00  0.00000000E+00
  0.00000000E+00  0.00000000E+00  0.00000000E+00
  0.00000000E+00  0.00000000E+00  0.00000000E+00
  0.00000000E+00  0.00000000E+00  0.00000000E+00
