Rb4 Al1 F7                              
   1.00000000000000     
     5.4152957355290887   -0.0126159718121074   -3.0731111012010031
    -1.7751141657592553    6.7568258969455401    3.0749272019675700
    -0.0137650470554615    0.0087337280990073    6.2127371270254432
   Rb   Al   F 
     4     1     7
Direct
  0.3226607169149790  0.8917532068301471  0.5729010235218264
  0.0700377722235921  0.1365965239970947  0.8243113004687552
  0.5131068978061202  0.4713607613273375  0.3803678614875743
  0.8779691515317918  0.5568609563922694  0.0178684655647331
  0.6966245002493583  0.0141077651595181  0.1986460090808298
  0.6125742897303946  0.1762476328278925  0.8675119517656945
  0.3670373144649111  0.8522125685758051  0.1147729695733996
  0.1981095444947808  0.5140317936008033  0.6969388930592944
  0.7809740605255936  0.8520604087638991  0.5298468042326763
  0.0264488091480497  0.1756303695426548  0.2826254471967822
  0.6118841281405633  0.1764496366063292  0.2838352928038608
  0.7817599707318555  0.8518601418229123  0.1135703873109914
 
  0.00000000E+00  0.00000000E+00  0.00000000E+00
  0.00000000E+00  0.00000000E+00  0.00000000E+00
  0.00000000E+00  0.00000000E+00  0.00000000E+00
  0.00000000E+00  0.00000000E+00  0.00000000E+00
  0.00000000E+00  0.00000000E+00  0.00000000E+00
  0.00000000E+00  0.00000000E+00  0.00000000E+00
  0.00000000E+00  0.00000000E+00  0.00000000E+00
  0.00000000E+00  0.00000000E+00  0.00000000E+00
  0.00000000E+00  0.00000000E+00  0.00000000E+00
  0.00000000E+00  0.00000000E+00  0.00000000E+00
  0.00000000E+00  0.00000000E+00  0.00000000E+00
  0.00000000E+00  0.00000000E+00  0.00000000E+00
