Li2 Ni2 F6                              
   1.00000000000000     
     3.5446897841504748   -0.0029451646821825    0.0023249390933833
     0.0127791564531350    6.4924960687455080   -0.2835595607692089
    -0.0072122909871604   -0.2204156128345967    4.7555663006912008
   Li   Ni   F 
     2     2     6
Direct
  0.5757565578571175  0.5397401775588553  0.5723335010666274
  0.0775645178905311  0.3129553216019352  0.8972938143134811
  0.4764644637763326  0.1024149641982788  0.3678266398362349
 -0.0239527065605030  0.7524443400024829  0.1037768186627367
  0.6154531724887969  0.5671824175012705  0.1813119929956314
 -0.1672395939513728  0.9041914520477617  0.4379278561220223
  0.3319694013994302  0.9512631538563922  0.0335393490391633
  0.5786982732392026  0.2601497134759619  0.7081047304187008
  0.0776460886214625  0.5937815881524178  0.7640720387614373
  0.1175294049896002  0.2891539755055538  0.2891684470345064
 
  0.00000000E+00  0.00000000E+00  0.00000000E+00
  0.00000000E+00  0.00000000E+00  0.00000000E+00
  0.00000000E+00  0.00000000E+00  0.00000000E+00
  0.00000000E+00  0.00000000E+00  0.00000000E+00
  0.00000000E+00  0.00000000E+00  0.00000000E+00
  0.00000000E+00  0.00000000E+00  0.00000000E+00
  0.00000000E+00  0.00000000E+00  0.00000000E+00
  0.00000000E+00  0.00000000E+00  0.00000000E+00
  0.00000000E+00  0.00000000E+00  0.00000000E+00
  0.00000000E+00  0.00000000E+00  0.00000000E+00
