Li2 Pb2 F6
1.0
   4.5564417839050293    0.0000000000000000   -0.1282678693532941
   0.7293174816274465    6.5648996226466920   -1.0061545372009275
   0.0000000000000000    0.0000000000000000    5.1883940696716309
Li Pb F
2 2 6
direct
   0.0835185050964356    0.7627071142196654    0.4710673987865448 Li
   0.0839164629578590    0.2636132240295410    0.9701453447341919 Li
   0.5847296714782715    0.2629592716693878    0.4711827039718628 Pb
   0.5834779143333435    0.7636916637420654    0.9714581370353699 Pb
   0.0289773307740688    0.0692860335111618    0.6045836210250854 F
   0.0833394974470139    0.7625942230224608    0.9708344340324402 F
   0.4645056724548340    0.1056624650955200    0.0514775924384594 F
   0.7040984630584717    0.4212993085384369    0.8910442590713501 F
   0.1388379633426667    0.4564038515090942    0.3382545709609985 F
   0.5822305679321289    0.7622906565666199    0.4735136032104492 F
