Li3 Mn1 F5                              
   1.00000000000000     
     3.6185317930571186    0.0111525381753577   -1.3676633160877341
    -2.0107226521386101    4.7348714515075558    0.2006347271850298
    -0.0437517294577326    0.0121791314302080    5.3387126433358150
   Li   Mn   F 
     3     1     5
Direct
  0.7591034985809701  0.1087341751462922  0.7431305038549002
  0.9451054610654659  0.7932394781300522  0.4259286419999330
  0.1464483784941751  0.3358164733131996  0.2889111998571684
  0.5566703573977908  0.5628027500718170  0.8815137210389420
  0.4719941633797612  0.7433394240131596  0.5319346396775850
  0.0351882699801964  0.5213213131960847  0.8792117891903474
  0.6632246332989122  0.4130656853431587  0.2449350875296152
  0.8514884791413136  0.9517363341646780  0.0838138462279152
  0.2453715316410318  0.1767378000493689  0.6434388856527382
 
  0.00000000E+00  0.00000000E+00  0.00000000E+00
  0.00000000E+00  0.00000000E+00  0.00000000E+00
  0.00000000E+00  0.00000000E+00  0.00000000E+00
  0.00000000E+00  0.00000000E+00  0.00000000E+00
  0.00000000E+00  0.00000000E+00  0.00000000E+00
  0.00000000E+00  0.00000000E+00  0.00000000E+00
  0.00000000E+00  0.00000000E+00  0.00000000E+00
  0.00000000E+00  0.00000000E+00  0.00000000E+00
  0.00000000E+00  0.00000000E+00  0.00000000E+00
