F  K  Li Sb
 1.0000000000000000
     5.4238446552737587    0.0000000000000000    0.0000000000000000
    -0.0137850230596297    5.4938659199490338    0.0000000000000000
    -2.2930870704097837    0.0048971525635440    4.9211428642285640
 F   K   Li  Sb 
   7   1   1   1
Cartesian
  2.2039689979242980  4.6858828164924651  1.9181481787507242
 -0.8072475035412997  2.2374021351439741  2.1372028011031996
 -0.7408433919436532  4.5998982485376150  2.1957371601657520
 -1.5982937553778962  4.6843030823293850  4.5259133315539106
  2.1427032758525444  2.1856141764581647  1.9608168449024443
  1.6022253426880977  3.4764783849327805  4.1179826208552059
 -1.6151052476148231  2.1868871904563618  4.5120643807392051
  0.7726008374581421  0.6874368418828186  4.6552831351688333
  0.6174578275670966  3.4083832967778891  1.2809965648022064
  3.2961656755203053  3.4404659636309507  3.0402817550565659
