Li3 Mn2 F7                              
   1.00000000000000     
     5.0217247181197777    0.1494788665665724   -0.8112633630808692
    -1.1754506711010699    4.9231058134216310   -1.1394230881687140
    -0.2477832022771621   -0.7474634501847489    5.6846213086172437
   Li   Mn   F 
     3     2     7
Direct
  0.7023446682219040  0.8308219080220357  0.5254440538320693
  0.0421352216060007  0.4072125939670038  0.4283582322497025
  0.2772760433086682  0.0243032159623727  0.7563070963161208
 -0.0086312500341061  0.8423431216267209  0.0804907124482370
  0.6374987750390714  0.6265289166822354 -0.0074977960059590
 -0.0023473612474681  0.7094608574006620  0.7276032453653326
  0.5892321488112678  0.2639233322448347  0.7497129554469920
  0.0958533074333325  0.2056106809086965  0.0709466505878303
  0.0213447151629176  0.0413914974735511  0.4506458165609976
  0.4700942364727471  0.7152362452015882  0.7021405661068868
  0.7110887399298979  0.4839525507331633  0.2587376585386618
  0.3931903903645403  0.8006469949411308  0.1873921943325086
 
  0.00000000E+00  0.00000000E+00  0.00000000E+00
  0.00000000E+00  0.00000000E+00  0.00000000E+00
  0.00000000E+00  0.00000000E+00  0.00000000E+00
  0.00000000E+00  0.00000000E+00  0.00000000E+00
  0.00000000E+00  0.00000000E+00  0.00000000E+00
  0.00000000E+00  0.00000000E+00  0.00000000E+00
  0.00000000E+00  0.00000000E+00  0.00000000E+00
  0.00000000E+00  0.00000000E+00  0.00000000E+00
  0.00000000E+00  0.00000000E+00  0.00000000E+00
  0.00000000E+00  0.00000000E+00  0.00000000E+00
  0.00000000E+00  0.00000000E+00  0.00000000E+00
  0.00000000E+00  0.00000000E+00  0.00000000E+00
