Na1 H3 F4                               
   1.00000000000000     
     3.4695719832537502   -0.0034876850456437   -0.0404100877857093
    -3.4295628802675471    5.4884995609918299   -2.4914011781432777
     0.0048385782652004   -0.0080812836003013    5.0720184787668749
   Na   H    F 
     1     3     4
Direct
  0.5949020114080025  0.5075853516337588  0.5141169904424063
  0.0843094648849562 -0.0036516955552756  0.5555866080459870
  0.0947770638162112  0.5073681840087411  0.0152586783507705
  0.1076713866471397  0.0193166334029618  0.0670378038652561
  0.0875797806204096  0.5065809981584176  0.2378990821525126
  0.1612650118737579  0.0722623304261100  0.2746227795541277
  0.1003513162218884  0.5077811547700022  0.7898235220366278
  0.0292104029939450  0.9434734691552832  0.7102014331871762
 
  0.00000000E+00  0.00000000E+00  0.00000000E+00
  0.00000000E+00  0.00000000E+00  0.00000000E+00
  0.00000000E+00  0.00000000E+00  0.00000000E+00
  0.00000000E+00  0.00000000E+00  0.00000000E+00
  0.00000000E+00  0.00000000E+00  0.00000000E+00
  0.00000000E+00  0.00000000E+00  0.00000000E+00
  0.00000000E+00  0.00000000E+00  0.00000000E+00
  0.00000000E+00  0.00000000E+00  0.00000000E+00
