Na1 Ca2 Ho1 F8                          
   1.00000000000000     
     5.4920939940399522   -0.0002569298700541    0.0088140342085947
     0.0052943824732486    5.4908968701807384    0.0097495336316582
    -0.0014396080402800   -0.0021320435271250    5.4546636956456691
   Na   Ca   Ho   F 
     1     2     1     8
Direct
  0.6531229507278372  0.4884002331750643  0.1107180169167106
  0.6534752041230038  0.9885467315511464  0.6110680154945659
  0.1531735761259187  0.4883710037147930  0.6103576666847124
  0.1535260240745870  0.9883744811904561  0.1106250573459207
  0.3919979056995918  0.7492106931862921  0.8632329607910822
  0.9144097735386614  0.7491986167220709  0.3574033630443690
  0.9148862403160096  0.2273758627690555  0.3581157015066754
  0.9147109091928899  0.2273450086826386  0.8633884898384171
  0.9145001052961594  0.7497136492771743  0.8631973607331446
  0.3924301211404880  0.7498069462573007  0.3580327132101367
  0.3925253542248117  0.2274567925039811  0.8634227259952459
  0.3920352365429255  0.2279050010401029  0.3574563682087641
 
  0.00000000E+00  0.00000000E+00  0.00000000E+00
  0.00000000E+00  0.00000000E+00  0.00000000E+00
  0.00000000E+00  0.00000000E+00  0.00000000E+00
  0.00000000E+00  0.00000000E+00  0.00000000E+00
  0.00000000E+00  0.00000000E+00  0.00000000E+00
  0.00000000E+00  0.00000000E+00  0.00000000E+00
  0.00000000E+00  0.00000000E+00  0.00000000E+00
  0.00000000E+00  0.00000000E+00  0.00000000E+00
  0.00000000E+00  0.00000000E+00  0.00000000E+00
  0.00000000E+00  0.00000000E+00  0.00000000E+00
  0.00000000E+00  0.00000000E+00  0.00000000E+00
  0.00000000E+00  0.00000000E+00  0.00000000E+00
