Mg1 Sb2 F8                              
   1.00000000000000     
     5.5423875795534947    0.0225693187087958   -1.3007698508878183
     0.8342622284194083    4.8987358857353289    1.1710965322597819
     0.1013287711667649   -0.0073599282654399    6.9390073716701792
   Mg   Sb   F 
     1     2     8
Direct
  0.7335816581263790  0.4061273417495523  0.7941126021818669
  0.5646157129901805  0.7997157670553077  0.1768020071905969
  0.1436104638289468  0.9334549432825766  0.5966490015551569
  0.4229152248412855  0.5978496332892086  0.6094009217673009
  0.8302810252056444  0.1453120098187661  0.6460832315061135
  0.5999788171382175  0.1126839127111382  0.9535834940597741
  0.9767221293467463  0.6122530056989027  0.6769590052992527
  0.7656435095867655  0.5915679021470681  0.0052672860792522
  0.2560041059397690  0.8150715084271286  0.9438400454934238
  0.3836350203834926  0.1041855838472200  0.2559602381308653
  0.9265438124480825  0.9266681773225001  0.3160666103657819
 
  0.00000000E+00  0.00000000E+00  0.00000000E+00
  0.00000000E+00  0.00000000E+00  0.00000000E+00
  0.00000000E+00  0.00000000E+00  0.00000000E+00
  0.00000000E+00  0.00000000E+00  0.00000000E+00
  0.00000000E+00  0.00000000E+00  0.00000000E+00
  0.00000000E+00  0.00000000E+00  0.00000000E+00
  0.00000000E+00  0.00000000E+00  0.00000000E+00
  0.00000000E+00  0.00000000E+00  0.00000000E+00
  0.00000000E+00  0.00000000E+00  0.00000000E+00
  0.00000000E+00  0.00000000E+00  0.00000000E+00
  0.00000000E+00  0.00000000E+00  0.00000000E+00
