Li4 Mn1 F6
1.0
   2.9711415767669678    0.0000000000000000    0.5852653384208678
   1.2952037058224728    4.7795567197644981    1.2671082019805915
   0.0000000000000000    0.0000000000000000    8.0257225036621094
Li Mn F
4 1 6
direct
   0.1016053557395934    0.9930726289749147    0.6552516818046570 Li
   0.0675582140684128    0.5366173386573792    0.1830102652311325 Li
   0.7633862495422363    0.0126281548291445    0.3118173480033875 Li
   0.4317512810230255    0.5000410079956055    0.4897204041481018 Li
   0.7640979886054993    0.4693537950515747    0.8540235757827759 Mn
   0.7574276924133301    0.7435811758041382    0.5947263240814209 F
   0.0861087217926979    0.2545089423656464    0.4279888570308685 F
   0.7170998454093933    0.3093634545803070    0.1123327538371086 F
   0.4318759441375732    0.2542482614517212    0.7340050339698792 F
   0.4111774563789368    0.7566081881523132    0.2754461169242859 F
   0.1028766930103302    0.7450094223022461    0.9008883833885193 F
