Rb3 Te1 H6 O5 F5
1.0
   5.5019683837890625    0.0000000000000000   -0.9811069369316100
  -0.2320599012642590    6.0903442793669971    0.4895431101322180
   0.0000000000000000    0.0000000000000000    9.4085397720336914
Rb Te H O F
3 1 6 5 5
direct
   0.7347609400749207    0.2118442207574845    0.0171799007803202 Rb
   0.2618063390254974    0.7366785407066345    0.7683990597724915 Rb
   0.2524203360080719    0.6971103549003602    0.3007655143737793 Rb
   0.7758948206901550    0.1836458742618561    0.5034772753715515 Te
   0.8286358714103699    0.6802232265472413    0.9623637199401855 H
   0.7111178636550903    0.5231806635856628    0.6667910218238831 H
   0.7532964348793030    0.6279796361923218    0.5011560916900635 H
   0.3038117289543152    0.1562598943710327    0.4976828396320343 H
   0.6796885728836060    0.7562448382377625    0.0766668990254402 H
   0.0900555625557899    0.2098626643419266    0.7894863486289978 H
   0.0672041550278664    0.3054527938365936    0.4495945572853088 O
   0.4485398530960083    0.0529112294316292    0.5312647819519043 O
   0.8532553315162659    0.7260048985481262    0.0636783614754677 O
   0.9117885231971741    0.1098733991384506    0.6975460052490234 O
   0.6706541180610657    0.4957869350910187    0.5499529838562012 O
   0.2236703038215637    0.2794219255447388    0.8744366168975830 F
   0.4329516589641571    0.8277152180671692    0.0593740269541740 F
   0.7554504275321960    0.5797731876373291    0.8101100921630859 F
   0.8389644026756287    0.8741372227668763    0.4371913373470306 F
   0.6030316948890686    0.2626195549964905    0.2977836728096008 F
