Cs1 B1 F4                               
   1.00000000000000     
     4.8101441024855323   -0.0377779046402097   -1.5138673054818164
     1.0852796280690393    4.6699476805924327   -1.5273860438013473
     0.0480740334832505    0.0499992927312438    5.0361810213642588
   Cs   B    F 
     1     1     4
Direct
  0.1648928502856774  0.7164926881998691  0.3642803634008965
  0.7454391566928321  0.2977416713351795  0.7822748014585869
  0.8748261284265577  0.4277070110623885  0.6531910000313818
  0.5746413940035044  0.1258359348297124  0.5660698641038006
  0.5740089975202921  0.5140086387661105  0.9531168363297783
  0.9617717201156993  0.1269196449819647  0.9532357411952553
 
  0.00000000E+00  0.00000000E+00  0.00000000E+00
  0.00000000E+00  0.00000000E+00  0.00000000E+00
  0.00000000E+00  0.00000000E+00  0.00000000E+00
  0.00000000E+00  0.00000000E+00  0.00000000E+00
  0.00000000E+00  0.00000000E+00  0.00000000E+00
  0.00000000E+00  0.00000000E+00  0.00000000E+00
