K1 Bi1 F4
1.0
   4.0240292549133301    0.0000000000000000    0.0217401161789892
   0.0136901106460077    4.0090136431720635    0.0082739694044001
   0.0000000000000000    0.0000000000000000    6.1851058006286621
K Bi F
1 1 4
direct
   0.9831551313400269    0.2894141674041748    0.2165153473615646 K
   0.4838345646858215    0.7891763448715211    0.7163306474685669 Bi
   0.4825963079929352    0.2887304723262787    0.9267025589942932 F
   0.9829645156860352    0.7894335985183716    0.9268246889114380 F
   0.9839413762092590    0.7897219061851501    0.5061529874801636 F
   0.4825985729694366    0.2894194424152374    0.5062259435653687 F
