Li2 Fe1 F5                              
   1.00000000000000     
     3.5318657441784600   -0.0121156813658390    1.1164401589528181
     1.1454362112126173    4.4065635735885120    2.5838443362994181
    -0.0623702676244278   -0.0849961442062125    6.2957944113120821
   Li   Fe   F 
     2     1     5
Direct
  0.1574766495520732  0.3202665422830951  0.2911751538122155
  0.2286180869104040  0.6986430628117747  0.7648918259059997
  0.9202509366773438  0.1571518673197843  0.9267595857191662
  0.0870581006019335  0.1189443485477398  0.6287138959531452
  0.0570849662325299  0.7342711607309029  0.0792607734574868
  0.7951333271629062  0.5797523308038619  0.7513200189250342
  0.3992270415895400  0.1962464415593487  0.9294545987183457
  0.7540862763216588  0.1957071116346773  0.2236863396983002
 
  0.00000000E+00  0.00000000E+00  0.00000000E+00
  0.00000000E+00  0.00000000E+00  0.00000000E+00
  0.00000000E+00  0.00000000E+00  0.00000000E+00
  0.00000000E+00  0.00000000E+00  0.00000000E+00
  0.00000000E+00  0.00000000E+00  0.00000000E+00
  0.00000000E+00  0.00000000E+00  0.00000000E+00
  0.00000000E+00  0.00000000E+00  0.00000000E+00
  0.00000000E+00  0.00000000E+00  0.00000000E+00
