Rb1 H1 F2
1.0
   3.6160731315612789    0.0000000000000000    0.0132634788751605
   0.0215818006507034    3.6308636607445619    0.0171516984701161
   0.0000000000000000    0.0000000000000000    5.1047825813293457
Rb H F
1 1 2
direct
   0.2921254634857178    0.4908629059791565    0.4106484055519104 Rb
   0.7924484610557556    0.9908095598220824    0.9102156758308411 H
   0.7916324138641357    0.9916316270828247    0.6848350167274475 F
   0.7934663891792297    0.9899156689643860    0.1359913498163223 F
