Na2 Li1 Be1 F5
1.0
   4.4064831733703613    0.0000000000000000    0.2502345442771901
   0.0064623138398617    5.1834185370874586    0.0780244842171669
   0.0000000000000000    0.0000000000000000    4.7454032897949219
Na Li Be F
2 1 1 5
direct
   0.7760895490646362    0.1299606859683990    0.8687614798545837 Na
   0.8171540498733521    0.6248992085456848    0.3174373507499695 Na
   0.2742329835891724    0.1250066310167313    0.3510852754116058 Li
   0.3489505052566528    0.6293379664421082    0.8155044913291932 Be
   0.7012216448783875    0.6278874278068542    0.8322907090187074 F
   0.7646619081497192    0.1258911937475204    0.3720885217189789 F
   0.2260554432868958    0.3780879080295563    0.9600068926811218 F
   0.2303045690059662    0.8850916624069215    0.9493748545646667 F
   0.2895371913909912    0.6294929385185242    0.4878216981887817 F
