K2 Y1 F5                                
   1.00000000000000     
     4.1500785366360224    0.0051203783223604   -1.3574313996094505
    -0.8807114773653507    5.5085217170365919   -2.6924632927498475
     0.0225354079521375   -0.0039095637472117    7.1167272562114796
   K    Y    F 
     2     1     5
Direct
  0.6740569640831165  0.1981531586039386  0.5409016208206048
  0.3163068868709699  0.8417556974625215  0.8281057431095500
  0.9947437761275447  0.5192840993843556  0.1839460441905792
  0.1266442883659884  0.8918178759477746  0.4478175576629471
  0.4942732439059603  0.5179111210477464  0.1839346944731858
  0.8626709719391429  0.6282061919324768  0.9204632801559518
  0.1284635787937197  0.4108220483748465  0.4482283165155882
  0.8621970449317915  0.1463605254250886  0.9196082464876548
 
  0.00000000E+00  0.00000000E+00  0.00000000E+00
  0.00000000E+00  0.00000000E+00  0.00000000E+00
  0.00000000E+00  0.00000000E+00  0.00000000E+00
  0.00000000E+00  0.00000000E+00  0.00000000E+00
  0.00000000E+00  0.00000000E+00  0.00000000E+00
  0.00000000E+00  0.00000000E+00  0.00000000E+00
  0.00000000E+00  0.00000000E+00  0.00000000E+00
  0.00000000E+00  0.00000000E+00  0.00000000E+00
