Tl1 Sn1 F5
1.0
   4.0169997215270996    0.0000000000000000    1.3418840169906616
   1.5840393499867107    4.7682509646423554    2.0965018272399898
   0.0000000000000000    0.0000000000000000    6.7599382400512695
Tl Sn F
1 1 5
direct
   0.3461058735847473    0.5418288111686707    0.4949893653392792 Tl
   0.8466557264328003    0.0405280552804470    0.9951181411743164 Sn
   0.6709374785423279    0.0978715717792511    0.2880405485630035 F
   0.3474039435386658    0.0411137379705906    0.9941856861114502 F
   0.7199159264564514    0.4476956725120544    0.8382968902587891 F
   0.0224120747298002    0.9833902120590210    0.7034980654716492 F
   0.9730288982391357    0.6336978077888488    0.1526504606008530 F
