Cs2 Ta1 H1 F8
1.0
   5.0652308464050293    0.0000000000000000   -1.5158668756484983
  -0.7982258575411548    5.2048376649719126    1.2937223911285398
   0.0000000000000000    0.0000000000000000    9.0517511367797852
Cs Ta H F
2 1 1 8
direct
   0.1997288465499878    0.6150249838829041    0.2474605888128281 Cs
   0.0083956737071276    0.8536607623100280    0.6201600432395935 Cs
   0.6044105887413025    0.2346880137920380    0.9338089823722839 Ta
   0.6042167544364929    0.2358735501766205    0.4327335655689240 H
   0.5460554957389832    0.4353484809398651    0.0673330798745155 F
   0.8116608858108521    0.0357965491712093    0.1200604289770126 F
   0.4328030943870544    0.0676991194486618    0.4214023649692535 F
   0.9244130253791809    0.4682212471961975    0.9106867313385010 F
   0.3972680270671844    0.4343707859516144    0.7454023361206055 F
   0.2836279869079590    0.0022677066735923    0.9563357830047607 F
   0.7748383283615112    0.4019438326358795    0.4456196129322052 F
   0.6603361368179321    0.0327081382274628    0.7999563813209534 F
