K1 Pr2 F7                               
   1.00000000000000     
     3.9284559635329179   -0.0175893238972857   -1.1454473060289645
    -0.7262989545651789    5.3999842931028494   -2.5788357064848277
    -0.0290327449501497   -0.0007650772189746    7.0585558769731813
   K    Pr   F 
     1     2     7
Direct
  0.7776208816931851  0.9806583336665282  0.6002869681511415
  0.1248966401736908  0.3307943768604188  0.2996514197496317
  0.4314629804940150  0.6300423863217923  0.8999091636311757
  0.2772700430406109  0.2273801611312022  0.5997229821854150
  0.2772310958526005  0.7333509635429655  0.6001617095773674
  0.7769657743144719  0.4811363935164524  0.6005801188616692
  0.9670568412738675  0.9009644883645000  0.9775815441807955
  0.5875477642750383  0.5268571477110029  0.2227824285253853
  0.5878387850382355  0.0596308710127390  0.2223965137430081
  0.9670374656147622  0.4330604471265584  0.9765344908957918
 
  0.00000000E+00  0.00000000E+00  0.00000000E+00
  0.00000000E+00  0.00000000E+00  0.00000000E+00
  0.00000000E+00  0.00000000E+00  0.00000000E+00
  0.00000000E+00  0.00000000E+00  0.00000000E+00
  0.00000000E+00  0.00000000E+00  0.00000000E+00
  0.00000000E+00  0.00000000E+00  0.00000000E+00
  0.00000000E+00  0.00000000E+00  0.00000000E+00
  0.00000000E+00  0.00000000E+00  0.00000000E+00
  0.00000000E+00  0.00000000E+00  0.00000000E+00
  0.00000000E+00  0.00000000E+00  0.00000000E+00
