Cs2 Mg2 Sc2 F12
1.0
   6.9178490638732910    0.0000000000000000   -1.6574336290359497
   0.8332205687185376    7.0853727403417750   -1.4846512079238892
   0.0000000000000000    0.0000000000000000    7.0762667655944824
Cs Mg Sc F
2 2 2 12
direct
   0.4655762910842896    0.3058288693428040    0.8090253472328186 Cs
   0.9372057318687439    0.0327154807746410    0.5537793040275574 Cs
   0.4782918095588684    0.7486091852188110    0.6044934391975403 Mg
   0.8275360465049744    0.6840832233428955    0.0332397148013115 Mg
   0.1641364991664886    0.4205341041088105    0.2544431090354919 Sc
   0.2924078106880188    0.8599493503570557    0.0888417959213257 Sc
   0.5905854105949402    0.7975786924362183    0.1303633749485016 F
   0.9942003488540649    0.8743790388107301    0.0261794961988926 F
   0.2612336874008179    0.5696478486061096    0.0678664445877075 F
   0.9777488708496093    0.6668487191200257    0.3126895427703857 F
   0.2873534262180328    0.1554216742515564    0.1228545382618904 F
   0.2950653135776520    0.8249133229255677    0.7913162708282471 F
   0.6320314407348633    0.9494237303733826    0.6808388829231262 F
   0.4073651134967804    0.5069455504417419    0.4478123486042023 F
   0.1003028899431229    0.3177426457405090    0.4583176672458649 F
   0.9220605492591858    0.4036302566528321    0.0287964064627886 F
   0.3173480331897736    0.8789523243904115    0.3836455345153809 F
   0.6887627243995667    0.6023362278938293    0.7687744498252869 F
