F  Na Sm Zn
 1.0000000000000000
     3.9876769093519098    0.0000000000000000    0.0000000000000000
    -0.0004839092987187    6.6615483923633860    0.0000000000000000
    -0.0017351655499141   -2.2964270234818045   10.6637997963629516
 F   Na  Sm  Zn 
  12   5   1   2
Cartesian
  2.3759013746207294 -0.2006842019130303  3.3983643841048337
  0.3844676453190217  0.0956370707857964 10.0522800347480565
  0.3822579826827146  1.4717209116061882  5.5006555194796789
  0.3807066854586909 -1.2753778798650643  6.0584241168025237
  0.3841052583603756  3.2847321934501781  7.7521711906530468
  0.3817393075934844  3.3906329622896783  3.3339686256685752
  2.3767206296551797  2.1563346511147490  1.7003606166982252
  0.3815669316261748  5.4518811642715548  1.7298476107413949
  2.3788364625359377  0.1680828563695597  7.9833686991031412
  2.3781129194954564  4.2871460702770774  0.0932746306995581
  2.3728366671913155  3.7509628293483162  5.0099204703881881
  2.3754854360725175 -1.9715483857748402  9.9444255771166095
  2.3779851718300455  0.0786770139647574  5.5565804768076896
  0.3832719870199334  1.0207005732867425  2.7298543794519095
  2.3770283177618596  4.5806675944275987  7.7045180878776565
  0.3837408043422511  1.0321662793972477  7.8077014329297896
  0.3809689818798278  3.4994923658432686 10.1688887764392248
  2.3785584447506123  4.3875811360086194  2.4878031605099968
  2.3753804219302155 -0.0076161232261077 10.2637150949308982
  0.3829723549113663  3.4505686385862537  5.5779955162718675
