Ti2 F8
1.0
   4.6571393013000488    0.0000000000000000   -0.0308416951447727
  -0.0134111712978680    4.6447960835860194   -0.0234625507146119
   0.0000000000000000    0.0000000000000000    5.6475720405578613
Ti F
2 8
direct
   0.0684691891074181    0.8853300213813783    0.1129149869084358 Ti
   0.5681371092796326    0.3854054212570191    0.7964773774147034 Ti
   0.7685498595237732    0.1876685470342636    0.5919013023376465 F
   0.8528556227684021    0.6715064644813538    0.8547529578208923 F
   0.2840475142002106    0.1002428159117699    0.8550130128860474 F
   0.7840538024902344    0.1723510771989822    0.0553921908140182 F
   0.8682259917259216    0.6879159808158875    0.3184836506843567 F
   0.3674824833869934    0.5848160386085510    0.5921953916549683 F
   0.2690669596195221    0.0837678760290146    0.3175090849399567 F
   0.3535439372062683    0.5998079776763916    0.0551740601658821 F
