Ba1 Li2 Ce1 F8
1.0
   4.6667838096618652    0.0000000000000000   -0.0534624941647047
   1.0606804682881337    5.0804613211368093   -0.0681746080517770
   0.0000000000000000    0.0000000000000000    8.1648578643798828
Ba Li Ce F
1 2 1 8
direct
   0.7654421925544739    0.0295356474816799    0.9517438411712646 Ba
   0.2661392390727997    0.5317462086677551    0.1365603357553482 Li
   0.2610266804695129    0.5265682339668274    0.7676199078559875 Li
   0.7645314931869507    0.0295793004333973    0.4517598748207092 Ce
   0.4679853618144989    0.7770847082138062    0.4495839476585388 F
   0.9702148437500000    0.7935900688171387    0.2319043725728989 F
   0.1326277852058411    0.3411087691783905    0.9513590931892395 F
   0.5574326515197754    0.2636650204658508    0.6721414923667908 F
   0.9750794172286987    0.7971844673156738    0.6713932156562805 F
   0.5581574440002441    0.2632458209991455    0.2327363789081573 F
   0.3964296877384186    0.7185497879981995    0.9512814283370972 F
   0.0618000216782093    0.2838060557842255    0.4544755518436432 F
