Mg1 Fe1 F4
1.0
   3.2111380100250244    0.0000000000000000    0.0015207141404974
   0.0021395826003142    4.7325029304973558    0.0576545521616940
   0.0000000000000000    0.0000000000000000    4.7291150093078613
Mg Fe F
1 1 4
direct
   0.3916367888450623    0.4277994930744171    0.4261762499809265 Mg
   0.8916950821876526    0.9280099868774415    0.9269397258758544 Fe
   0.8920552134513855    0.2333164215087891    0.6217054724693298 F
   0.3914844989776611    0.7241372466087342    0.7226202487945557 F
   0.3918097615242004    0.1320789456367493    0.1304651796817780 F
   0.8916682600975037    0.6227141022682190    0.2307305037975311 F
