Cs2 Sb2 F8
1.0
   5.9219913482666016    0.0000000000000000   -1.0774432420730582
  -2.3013036178960546    5.3637153884671438   -1.5424815416336062
   0.0000000000000000    0.0000000000000000    9.2919530868530273
Cs Sb F
2 2 8
direct
   0.2918571531772614    0.0537154152989388    0.7793103456497192 Cs
   0.2936893105506897    0.5545979142189026    0.2792262136936188 Cs
   0.7902685403823853    0.8044497966766357    0.0299224704504013 Sb
   0.7917346358299255    0.3055016100406647    0.5277052521705627 Sb
   0.8379546999931335    0.0810827463865280    0.9520179629325867 F
   0.8422388434410095    0.5812389254570007    0.4526455402374268 F
   0.1463765650987625    0.4290519952774048    0.6040056943893433 F
   0.4408773779869080    0.1825696229934692    0.4541813135147095 F
   0.4373899996280670    0.6815175414085388    0.9538202881813049 F
   0.1424161493778229    0.9260643720626832    0.1037562340497971 F
   0.7460242509841919    0.0300197545439005    0.6069586873054504 F
   0.7421967983245850    0.5275348424911499    0.1062747612595558 F
