Li1 P1 F6
1.0
   4.5430130958557129    0.0000000000000000    0.5140860676765442
  -0.9504724976221368    3.9523575090532206   -2.2402708530426017
   0.0000000000000000    0.0000000000000000    4.8345160484313965
Li P F
1 1 6
direct
   0.9979888796806334    0.4612377285957336    0.6222711801528931 Li
   0.4983789622783660    0.9615851640701294    0.6214416623115540 P
   0.2846339344978333    0.8926098346710205    0.8923251628875732 F
   0.2802561223506927    0.1848247200250626    0.6192067265510559 F
   0.7131967544555664    0.3006598353385925    0.8955388665199280 F
   0.7114542126655579    0.0310655888170004    0.3509744703769684 F
   0.7157393097877502    0.7369063496589661    0.6233129501342773 F
   0.2827812433242798    0.6228734254837036    0.3484308421611786 F
