Cs1 H2 O1 F1                            
   1.00000000000000     
     4.5376058019088115   -0.0763455882896939   -0.1136274201804223
    -0.1037279231594601    4.2808061393543326   -0.2112729145481826
    -0.0742122032800987   -0.1069545179967313    4.5458930445173786
   Cs   H    O    F 
     1     2     1     1
Direct
  0.2594656894877138  0.0523443983244744  0.3580198656014533
  0.6599445603031808  0.5774015879804134  0.0267375626929270
  0.6654595063407855  0.5845909140786086  0.6728697539005556
  0.5393859573416540  0.6225333243861050  0.8465636674647008
  0.8074362609281399  0.5247506037397290  0.3515426701329197
 
  0.00000000E+00  0.00000000E+00  0.00000000E+00
  0.00000000E+00  0.00000000E+00  0.00000000E+00
  0.00000000E+00  0.00000000E+00  0.00000000E+00
  0.00000000E+00  0.00000000E+00  0.00000000E+00
  0.00000000E+00  0.00000000E+00  0.00000000E+00
