Pb4 F8
1.0
   4.1764197349548340    0.0000000000000000    0.0068938028998677
  -2.0716610090867102    3.6331697618337260   -0.0052356687374409
   0.0000000000000000    0.0000000000000000   13.9576816558837891
Pb F
4 8
direct
   0.2233379483222961    0.5794907212257385    0.6974169015884399 Pb
   0.8945205211639404    0.9137946963310242    0.9497808218002319 Pb
   0.2305121868848801    0.5846819281578064    0.1987397819757462 Pb
   0.5569008588790894    0.2432011067867279    0.4485090672969818 Pb
   0.2306551933288574    0.5793336629867554    0.0242160893976688 F
   0.8898166418075562    0.9079540371894835    0.3964809477329254 F
   0.5622943639755249    0.2468892335891724    0.8955420851707458 F
   0.8965508341789246    0.9156885147094727    0.1373289674520493 F
   0.2221726924180984    0.5784525871276855    0.5230194926261902 F
   0.5561867952346802    0.2457170039415359    0.6370803117752075 F
   0.8899155259132385    0.9143449664115905    0.7606757879257202 F
   0.5611662864685059    0.2485262751579284    0.2598812580108643 F
