Na1 Li3 Nd1 F7
1.0
   5.4154787063598633    0.0000000000000000   -1.5347026586532595
  -2.1484991183764368    5.2954044907203333   -1.7220900058746333
   0.0000000000000000    0.0000000000000000    5.9249634742736816
Na Li Nd F
1 3 1 7
direct
   0.9461196660995483    0.0149083994328976    0.4788538515567780 Na
   0.5770512819290161    0.5142515301704407    0.9624589085578918 Li
   0.0307808239012956    0.4962702691555023    0.3983282148838043 Li
   0.5358620882034302    0.5159637331962585    0.4614248573780060 Li
   0.2789624929428101    0.9097270965576172    0.0373407825827598 Nd
   0.6871860623359680    0.2378106713294983    0.3390521705150604 F
   0.5027247667312622    0.6974766254425049    0.2385509759187698 F
   0.9632865190505981    0.6625249385833740    0.1577842086553574 F
   0.3965024352073669    0.6413387060165405    0.7288984060287476 F
   0.1673323661088943    0.2251383066177368    0.2778657674789429 F
   0.3569661080837250    0.1736544370651245    0.8251483440399170 F
   0.9152376651763916    0.7196758985519409    0.6599116921424866 F
