Rb2 Bi1 F5
1.0
   4.1918377876281738    0.0000000000000000   -1.2131019830703738
  -0.5258377620776854    4.9006684270566083   -1.6934528350830078
   0.0000000000000000    0.0000000000000000    8.1267814636230469
Rb Bi F
2 1 5
direct
   0.1681786626577377    0.4032844603061676    0.3798821866512299 Rb
   0.4725023508071899    0.7063033580780029    0.9927943944931030 Rb
   0.8193858861923218    0.0536958016455173    0.6879007816314697 Bi
   0.6669560074806213    0.8997277021408082    0.3738590776920319 F
   0.3203901350498199    0.8376083970069885    0.6863335967063904 F
   0.9757803678512573    0.2109585106372833    0.0011790059506893 F
   0.8216905593872070    0.5534394979476929    0.6877950429916382 F
   0.3197892606258392    0.2713137269020081    0.6865851283073425 F
