Rb1 B1 F4                               
   1.00000000000000     
     4.6222763862752032    0.0385945996666670   -1.3984709731946787
    -1.0221162495430012    4.5096494489093253    1.4065454171191309
     0.0398020608433636   -0.0566690172995848    4.8330127075331637
   Rb   B    F 
     1     1     4
Direct
  0.1751401979960074  0.6262009600419187  0.6119543710638226
  0.7559416875498780  0.0424572653987126  0.0301763174701632
  0.5767429194427260  0.2187063878546585  0.8073921243436137
  0.9795213486237151  0.2189108742814128  0.2087792888972766
  0.5794229706446876  0.8177312024266618  0.2069516214903884
  0.8926360893374297  0.9089781896095583  0.8928408389523357
 
  0.00000000E+00  0.00000000E+00  0.00000000E+00
  0.00000000E+00  0.00000000E+00  0.00000000E+00
  0.00000000E+00  0.00000000E+00  0.00000000E+00
  0.00000000E+00  0.00000000E+00  0.00000000E+00
  0.00000000E+00  0.00000000E+00  0.00000000E+00
  0.00000000E+00  0.00000000E+00  0.00000000E+00
