Na1 H1 F2                               
   1.00000000000000     
     3.2846476553988357    0.0005216390647180    1.2205781574934012
     1.4272327757761314    2.9468485621079261    1.2152647758429078
     0.0004776410581211    0.0046585928890132    5.0929550950020026
   Na   H    F 
     1     1     2
Direct
  0.3758321420707684  0.2328224659659300  0.5491522062749352
  0.8758424380299791  0.7329306552679186  0.0489648859182585
  0.9571797623604484  0.8157802161755352  0.8022310659547447
  0.7940560033315746  0.6510730318475895  0.2950839646488355
 
  0.00000000E+00  0.00000000E+00  0.00000000E+00
  0.00000000E+00  0.00000000E+00  0.00000000E+00
  0.00000000E+00  0.00000000E+00  0.00000000E+00
  0.00000000E+00  0.00000000E+00  0.00000000E+00
