Na2 Li2 Sm2 F10                         
   1.00000000000000     
     5.9775848434419014    0.0190470686357681   -0.3762973313961430
    -2.8140661452958526    4.9322804497210271   -3.2151427938621087
     0.0045330566886233   -0.0268311276206170    7.0184244806804754
   Na   Li   Sm   F 
     2     2     2    10
Direct
  0.8966143559216587  0.0914544271528403  0.4910403962716991
  0.5454723524259916  0.4298702078596123  0.9838422366048244
  0.6213598389725646  0.3111449476275786  0.3713162781164394
  0.2390480595377436  0.7657702366609735  0.0534955469238190
  0.9284138298847570  0.9857150608661454  0.9242327452444109
  0.3037408401830246  0.7270364939197810  0.5174917213674299
  0.2047429539962982  0.4797249505001068  0.1056630820632220
  0.3508180522040969  0.1266603630959015  0.0985566894195620
  0.1700149150306564  0.0460039708747415  0.6796393149610934
  0.4799096371729908 -0.0003552261899858  0.3842440927625861
  0.6544794988931654  0.6605099151443702  0.4746965006140980
  0.9219266305918835  0.2867133397879625  0.2919360417878961
  0.9242168747273527  0.8049981066327241  0.1374435694210466
  0.4818148690301314  0.6854214887277826  0.8180956089739916
  0.0063048640262736  0.6198179396793163  0.7183793530680519
  0.6894715891455290  0.1263808331060582  0.7974654053804626
 
  0.00000000E+00  0.00000000E+00  0.00000000E+00
  0.00000000E+00  0.00000000E+00  0.00000000E+00
  0.00000000E+00  0.00000000E+00  0.00000000E+00
  0.00000000E+00  0.00000000E+00  0.00000000E+00
  0.00000000E+00  0.00000000E+00  0.00000000E+00
  0.00000000E+00  0.00000000E+00  0.00000000E+00
  0.00000000E+00  0.00000000E+00  0.00000000E+00
  0.00000000E+00  0.00000000E+00  0.00000000E+00
  0.00000000E+00  0.00000000E+00  0.00000000E+00
  0.00000000E+00  0.00000000E+00  0.00000000E+00
  0.00000000E+00  0.00000000E+00  0.00000000E+00
  0.00000000E+00  0.00000000E+00  0.00000000E+00
  0.00000000E+00  0.00000000E+00  0.00000000E+00
  0.00000000E+00  0.00000000E+00  0.00000000E+00
  0.00000000E+00  0.00000000E+00  0.00000000E+00
  0.00000000E+00  0.00000000E+00  0.00000000E+00
