F  H  K 
 1.0000000000000000
     5.2588717900183282    0.0000000000000000    0.0000000000000000
    -2.9669913800272933    5.0278933260317258    0.0000000000000000
    -0.4923640015954203   -1.1290523798642342    6.6867302411087550
 F   H   K  
   6   3   3
Cartesian
 -1.6856192723653571  3.4636087946005389  2.3498135769008628
  0.9199006532372177  4.1934845565739556  4.7345749032490492
  1.3419600747891836  0.2604892342310261  0.9972343393635063
  0.5648410023858726  3.1619769013850960  0.2139113591497350
  3.9518078612721692  0.9850166832120848  3.3791725643115358
  1.7293320960411427  1.3064504143235320  5.5212258858819281
 -1.6241577893866765  4.3329577452961026  1.6732092450494755
  3.8928329126852459  0.1074133748111381  4.0594621828740447
  0.8957381920083179  1.6677648190852110  6.1975992521085832
  3.9925824033380883  1.0036135652749023  0.6254947179753438
 -1.7226419916358833  3.4572538202992229  5.1026707380049086
  1.1306269170024075  2.2220364503508039  2.8658820528360440
