F  Na F  Tm F  Sr F                                                                                 
 1.000
    4.0055747487874802    0.0000000000000000    0.0000000000000000
   -0.0028020649227530    5.7060765715347808    0.0000000000000000
   -0.0012244510396390    0.0050725112777137    8.1173603451521856
   F    Na   Sr   Tm
    8    1    2    1
Direct
    0.6007057428359986    0.7979584336280824    0.4547024965286255      F1
    0.6013746261596681    0.3203845620155334    0.0227249599993229      F2
    0.1012523919343948    0.3417205512523651    0.2386678457260132      F3
    0.6002852916717528    0.7989968657493592    0.0236717797815800      F4
    0.1004261001944542    0.8075271248817443    0.7392894029617310      F5
    0.1013569682836533    0.3097679615020751    0.7386562228202820      F6
    0.1007005050778389    0.7754027247428895    0.2391988784074783      F7
    0.6011336445808408    0.3193061649799348    0.4548091888427734      F8
    0.6006625294685364    0.5587531924247741    0.7387573122978210     Na1
    0.1009104847908020    0.0580181553959846    0.4980405569076538     Sr1
    0.1007756143808365    0.0590481497347355    0.9799171090126035     Sr2
    0.6008828878402711    0.5585008859634398    0.2388759702444077     Tm1
