Pb2 F4
1.0
   4.2057132720947275    0.0000000000000000   -0.0056414911523462
   2.0681797414789282    3.6999521733265270   -0.0103340661153191
   0.0000000000000000    0.0000000000000000    6.0913100242614746
Pb F
2 4
direct
   0.3400595486164093    0.8207621574401857    0.9633238315582274 Pb
   0.0002013377379626    0.4640155732631683    0.4637945592403411 Pb
   0.6748435497283936    0.1483781784772873    0.7085788846015930 F
   0.3369948565959930    0.8082012534141542    0.4598858654499053 F
   0.0063514295034110    0.4818544089794159    0.9581357836723327 F
   0.6729467511177063    0.1470680236816406    0.2092742025852203 F
