Br F  Na
 1.0000000000000000
     4.6352973204850212    0.0000000000000000    0.0000000000000000
    -0.0006391172002234    7.3405355692443939    0.0000000000000000
    -2.3287183258117681   -0.0820228562075076    6.2233568383907159
 Br  F   Na 
   1   5   6
Cartesian
 -0.0650422255602252  5.9159742142892000  1.4729092344092996
  4.5778594619590391  2.7844381115303971  0.1098365612458880
 -0.0712084750585521  3.9606569512342129  4.4555189272891811
  2.2570537012190002  2.4448218420817072  2.5058071730368927
 -0.0722036987273317  0.5388916529301017  5.9179103158607589
  2.2516505556535757  6.3788086333995411  4.0702132644213140
  2.2590416667177755  2.8483841484030488  0.1636207651892430
  2.2501527677549507  0.1210604647954781  2.0375819213279081
 -0.0608618663903828  3.0872330801313601  2.3525764645199443
  2.2488942377352377  4.0043642760283760  4.4021846631549737
  2.2466297514268021  0.5635454289863977  5.6909597255905053
 -0.0669690112528297  6.1951847946004275  4.4176135820135034
