Na4 Ca1 Mg3 F12
1.0
   5.7241754531860360    0.0000000000000000   -0.8476247787475581
  -0.1904638827338659    5.7197262808756264   -1.0012927055358887
   0.0000000000000000    0.0000000000000000    8.1483116149902344
Na Ca Mg F
4 1 3 12
direct
   0.2900932133197784    0.1965246349573135    0.4086151719093323 Na
   0.2870006859302521    0.7034290432929993    0.7317687869071960 Na
   0.7002702951431274    0.1231091991066933    0.1976165175437927 Na
   0.8447456955909729    0.2591999769210815    0.7295590043067932 Na
   0.7066411972045898    0.7030599713325499    0.4016649425029755 Ca
   0.1839577555656433    0.6096596121788025    0.2104191482067108 Mg
   0.3576942384243011    0.2679098844528198    0.9085189700126648 Mg
   0.8491736650466919    0.7778238654136658    0.9098313450813293 Mg
   0.6015868782997131    0.5198193788528442    0.8866723179817200 F
   0.1092676892876625    0.5357122421264648    0.9538106918334961 F
   0.4121322929859161    0.8584041595458983    0.2206109315156936 F
   0.3469832539558411    0.6318454742431641    0.4626668989658356 F
   0.6046339869499207    0.0230011772364378    0.8956884145736694 F
   0.2368745803833008    0.2582536935806274    0.6708027720451355 F
   0.7007972002029419    0.0957946255803108    0.4792324304580688 F
   0.9562881588935852    0.4133047163486481    0.2861613631248474 F
   0.0976882129907608    0.0234259478747845    0.9029470086097717 F
   0.9162951707839966    0.8248785734176636    0.1802270263433456 F
   0.4170405268669128    0.3606643080711365    0.1690227985382080 F
   0.8669912219047546    0.6732105612754822    0.6625760793685913 F
