Na2 Ca1 Mg1 F6
1.0
   5.0323481559753418    0.0000000000000000    2.8840327262878422
   1.6563121082813850    4.7268193483301744    2.8906898498535147
   0.0000000000000000    0.0000000000000000    5.7859835624694824
Na Ca Mg F
2 1 1 6
direct
   0.4907040894031524    0.0092719160020351    0.6458396911621094 Na
   0.8073195815086365    0.5700680017471313    0.2100765705108643 Na
   0.6489797830581665    0.2898774743080139    0.9277573823928834 Ca
   0.1493047922849655    0.7899514436721802    0.4270577728748322 Mg
   0.8956074714660643    0.1337701976299286    0.5519311428070068 F
   0.8948010206222533    0.5758215188980103    0.7729657888412476 F
   0.8942728042602538    0.9147003889083862    0.2131487578153611 F
   0.4061627686023712    0.6646668910980225    0.6398316621780396 F
   0.4014845490455627    0.4452521800994873    0.3035157024860382 F
   0.4042848646640778    0.0033566951751709    0.0829325541853905 F
