Li5 S1 O3 F3
1.0
   5.1177740097045898    0.0000000000000000    0.5715133547782905
  -2.2326786577556708    4.2567969066642579   -1.7159771919250482
   0.0000000000000000    0.0000000000000000    5.1593546867370605
Li S O F
5 1 3 3
direct
   0.3431323170661926    0.0144325038418174    0.5726858377456665 Li
   0.9809699058532714    0.8119233250617980    0.0589301474392414 Li
   0.9982291460037230    0.3491454124450683    0.5655839443206787 Li
   0.3176506757736206    0.4740186929702759    0.0527432337403297 Li
   0.6943422555923462    0.6857519745826721    0.5529516935348511 Li
   0.5724898576736450    0.0781095996499062    0.0942613258957863 S
   0.6589104533195496    0.9379257559776306    0.2809011936187744 O
   0.3712779283523560    0.2247366011142730    0.2673326134681702 O
   0.3679117858409882    0.7920715808868408    0.8502640128135681 O
   0.0440908931195735    0.6163107752799987    0.3321470320224762 F
   0.0407457128167152    0.1023340299725533    0.7645879983901978 F
   0.6939580440521240    0.4525129199028015    0.7784810662269592 F
