K1 Ba1 Gd1 F6
1.0
   3.9857480525970459    0.0000000000000000   -1.1973421573638912
  -0.7577067276998113    5.4894105467300474   -2.5385477542877202
   0.0000000000000000    0.0000000000000000    7.2658925056457520
K Ba Gd F
1 1 1 6
direct
   0.9275988340377808    0.3462378382682800    0.8966798782348634 K
   0.5960158109664917    0.0153013300150633    0.2335188686847687 Ba
   0.2644388377666473    0.6842029094696045    0.5722358226776123 Gd
   0.7606503963470459    0.4734517335891724    0.5628166198730469 F
   0.4129231572151184    0.6072234511375427    0.8658747673034669 F
   0.4116028547286987    0.0547278746962547    0.8647606968879701 F
   0.1162932440638542    0.7665846347808838    0.2738941013813019 F
   0.7608956694602966    0.8877056241035461    0.5642710328102112 F
   0.1179348230361938    0.3048455119132996    0.2757497727870941 F
