K2 Mg1 H2 F6
1.0
   4.8948607444763184    0.0000000000000000    1.6918418407440183
   2.1759866267393591    5.2028699928606210    3.6626863479614253
   0.0000000000000000    0.0000000000000000    5.8825082778930664
K Mg H F
2 1 2 6
direct
   0.5325871706008911    0.8210928440093994    0.6377569437026978 K
   0.9041422605514526    0.0222981944680214    0.0236122496426106 K
   0.7193055748939514    0.4213828146457672    0.3300739824771881 Mg
   0.2179674953222275    0.4226293265819550    0.3303154706954956 H
   0.2182160466909409    0.4205472171306611    0.8316352963447572 H
   0.9964409470558167    0.4184278845787049    0.9665333032608033 F
   0.4485093355178833    0.3342421352863312    0.2447310686111450 F
   0.4980290532112122    0.7909017801284791    0.1171839684247970 F
   0.4390962123870850    0.4236368536949158    0.6964266896247864 F
   0.9386609196662903    0.0518415123224258    0.5415127873420715 F
   0.9869982600212097    0.5100440382957458    0.4169399440288543 F
