K1 H3 F4
1.0
   3.9359953403472905    0.0000000000000000   -0.2333314418792730
  -1.5026220057904984    4.7183840429207651   -2.0807836055755615
   0.0000000000000000    0.0000000000000000    6.4019794464111328
K H F
1 3 4
direct
   0.2143898159265518    0.9681668877601624    0.5234213471412659 K
   0.9918677806854247    0.5241382122039795    0.7911695241928101 H
   0.4337306022644042    0.4081539511680603    0.2557141482830048 H
   0.2136493474245072    0.9667748212814332    0.0206721499562264 H
   0.2003273665904999    0.7820618748664856    0.8538269996643066 F
   0.8510451912879943    0.3151951134204865    0.7291683554649353 F
   0.2272365391254425    0.1563250571489334    0.1935973465442657 F
   0.5790445804595947    0.6200889348983765    0.3164658546447754 F
