Na2 Mg1 Zn1 Ga2 F12
1.0
   5.3022584915161133    0.0000000000000000   -0.0074625546112654
  -2.6728324645660000    4.5828071695202386   -0.0104854758828872
   0.0000000000000000    0.0000000000000000    8.8527412414550781
Na Mg Zn Ga F
2 1 1 2 12
direct
   0.0288362726569176    0.5120141506195068    0.2937792837619781 Na
   0.3624050617218018    0.1779844909906387    0.7952350974082947 Na
   0.6956738829612732    0.8451371192932129    0.0437084808945656 Mg
   0.6952756643295288    0.8451086878776550    0.5435729026794434 Zn
   0.3621894717216492    0.1785168945789337    0.2922039628028870 Ga
   0.0292167980223895    0.5124009251594545    0.7953115105628967 Ga
   0.6500167250633240    0.1559634804725647    0.4173162281513214 F
   0.3458241820335388    0.5418636202812195    0.9181283116340637 F
   0.0516531765460968    0.8905795216560364    0.4171469509601593 F
   0.7410189509391785    0.5351595282554626    0.6702985167503357 F
   0.0049286372959614    0.1995513886213303    0.6703572273254395 F
   0.3403516113758087    0.8007547259330750    0.6700599789619446 F
   0.9995484352111818    0.7992402911186219    0.9183727502822876 F
   0.7423399686813354    0.1958686858415604    0.9182863235473633 F
   0.3862918615341187    0.4906271100044251    0.4171247780323029 F
   0.3910329639911652    0.8901338577270508    0.1690164208412170 F
   0.0455857962369919    0.1496254205703735    0.1697841733694077 F
   0.6492894887924194    0.4946465790271759    0.1695111989974976 F
