F  Pb Rb
 1.0000000000000000
     6.9937200941576183    0.0000000000000000    0.0000000000000000
    -0.9763724126826047    7.0192761511561743    0.0000000000000000
    -1.9886899794546971   -2.4662276003711874    8.7163612861140027
 F   Pb  Rb 
  10   2   6
Cartesian
  2.4343840999696535  4.0887539019640018  4.2322181933549228
  5.4411485609270489 -0.1095824244204438  5.0728938436856073
  0.4034840819653282  1.2729728941124072  3.4205773105825603
  2.4448096695704451  4.6285783434458301  0.6924486965368104
  2.4464086634723925  3.5628862647829660  7.7804028034067603
 -1.5685013115221356 -0.6476039664629170  8.5945831762808478
 -0.7032077317695450  4.2753663800368527  2.3677311068162123
  3.5615879020895553  1.6273853775874896  1.7856311911059806
  2.2945330908515453 -0.4700923459479788  6.7071850885154545
 -1.4278781861401850  3.9174883340251183  6.1176794523356941
  4.4250300548364780 -1.7854550384980985  6.4250325677736040
  1.4323614188227665  2.9472085461325679  2.0679759400265629
  4.7492231223425181  2.4065188573382139  4.0589011111258069
  5.4110783699300651 -0.5601613481328905  2.0594178895558821
  0.4383504818542711  1.7287350412479332  6.4316104082355432
  1.0993468837847209 -1.2345204418906708  4.4273386268727348
  5.1128262876626067  3.5037231485643114  0.0697251949446395
  0.7517591144445983 -2.3407581010729830  8.4219139549676196
