F  In Pb
 1.0000000000000000
     5.3611954006526821    0.0000000000000000    0.0000000000000000
     1.8239408865798936    6.8236302779336944    0.0000000000000000
     0.2995476950308392    2.5189535885483170    6.4393426866283976
 F   In  Pb 
  11   3   1
Cartesian
  6.1765815863409372  3.5068528663111445  1.4752077602709575
  1.4869138193815716  5.1353853508401865  5.5138690268462618
  6.4482633098497368  7.4255981257730017  3.9714584732244007
  6.8095931424768033  5.7251285928394955  0.2211933904087938
  5.6654161737682101  3.2227875365506824  4.1842323117334503
  4.3405373229790616  1.7441483881611608  0.5514465858756736
  2.9870685511425883  2.8376377596141102  3.0452609388550282
  1.0413399027196075  0.7363660274565893  1.8645537437715018
  3.9362033284769060  4.6162883917025566  1.2437975095194804
  4.5715208868350645  8.9981341845262133  5.7481783262329698
  4.1364543450086471  6.1336133706447855  4.6870346021097635
  0.9863202025593697  3.1763227920283366  6.1917372772464327
  5.5292866296867276  6.9261256253809265  6.0085701396442053
  4.8575915372899301  2.1943543894695261  2.5553632674458795
  2.5696462821947912  5.2215340442173623  3.0775775636871860
