Cs F  K  Rb
 1.0000000000000000
     7.3693687179765206    0.0000000000000000    0.0000000000000000
     0.1044407301211988    8.0934423176051205    0.0000000000000000
    -2.7254981917293355   -5.1558587741306177    9.2503389476945728
 Cs  F   K   Rb 
   5  10   2   3
Cartesian
 -0.4543113639771609  3.0453263295025121  8.4646298937828153
  4.2723031794857480  5.5671857713071908  3.9135967113742880
  3.2607554044792764 -3.5887061062415428  7.4284602617058324
  3.8700960364302621  1.5210061555204164  2.4308033406111451
  0.1331559906462172  2.6385987593655171  4.1594969647850153
  1.0153471205068612 -2.4748923360442885  8.9931671770602648
  2.8069401915966457 -0.9946788244740070  6.1991861562770101
 -1.3231960399511107  4.4078463507462455  6.1063371503124433
  5.8625293738656277  0.0515398239169364  4.0103383412980813
  2.9769782721115399  2.9469587353042654  4.8713222515885128
  6.4644935212186585  4.6935758474611307  2.1283121366220725
  3.7717527857184918  2.0429181779825805  8.7285740581977418
  2.5963325954994820  6.2728669115790732  1.5952611187777377
  1.0958869294885623  1.4804855604883926  1.6386172857355028
 -0.7500056127211883  0.3939486108307140  7.5032091176231601
  4.3989595914559576  1.0222503763414077  6.2524202700536886
 -0.0081949832983727 -0.8785363374723510  1.9203211334420285
  0.1166556167549158 -1.4632711612451519  5.9246232886282657
  1.9795102945509102  0.0591420756414498  9.0883412815001936
  1.2752396384684781  4.0871700540591709  0.4906352696883344
