Bi1 F3                                  
   1.00000000000000     
     4.2467081074291659   -0.0079897959059169    0.0148751967790595
     2.1458893522762743    3.6597076459085347    0.0083592852386414
    -0.0008738994669988   -0.0005921052808547    4.5596767293363873
   Bi   F 
     1     3
Direct
  0.7302262866105637  0.1579000182020783  0.8082169252241163
  0.0640292537534072  0.4908322380438481  0.8070301782051215
  0.7319086556881553  0.1568528193921169  0.3083880912415594
  0.3976541314343888  0.8236003774192459  0.8087551494721169
 
  0.00000000E+00  0.00000000E+00  0.00000000E+00
  0.00000000E+00  0.00000000E+00  0.00000000E+00
  0.00000000E+00  0.00000000E+00  0.00000000E+00
  0.00000000E+00  0.00000000E+00  0.00000000E+00
