Na3 Sc1 F6                              
   1.00000000000000     
     3.6917865337704510   -0.0375518490222721   -1.2535485503216559
    -1.5302742857957690    5.5010619283305093   -2.4069887162967842
    -0.0248034149011370   -0.0464492162197454    6.8743810962552878
   Na   Sc   F 
     3     1     6
Direct
  0.2626401277960072  0.2645593122577259  0.4210232769231424
  0.9904749803503453  0.3197784322222855  0.8846631194783209
  0.8237224480538256  0.7007948933388702  0.3556818144257501
  0.4017556293441291  0.8455274828505133  0.9092887284380755
  0.6244389372531941  0.0210298502916120  0.2625513586952418
  0.9770854692631560  0.5494786354575971  0.6439727107249104
  0.3259191982702517  0.0261080654358491  0.7098925939330035
  0.5836026546003044  0.5678819856750977  0.9463356915804895
  0.9593983366212107  0.9810531699882122  0.9660266955637887
  0.2419848082503173  0.5146697335976207  0.2685521198259003
 
  0.00000000E+00  0.00000000E+00  0.00000000E+00
  0.00000000E+00  0.00000000E+00  0.00000000E+00
  0.00000000E+00  0.00000000E+00  0.00000000E+00
  0.00000000E+00  0.00000000E+00  0.00000000E+00
  0.00000000E+00  0.00000000E+00  0.00000000E+00
  0.00000000E+00  0.00000000E+00  0.00000000E+00
  0.00000000E+00  0.00000000E+00  0.00000000E+00
  0.00000000E+00  0.00000000E+00  0.00000000E+00
  0.00000000E+00  0.00000000E+00  0.00000000E+00
  0.00000000E+00  0.00000000E+00  0.00000000E+00
