K3 Dy1 F6                               
   1.00000000000000     
     5.9169994767895382   -0.0073461146028856    0.5191967743513374
    -0.4974433518588877    5.8872679950907658   -0.5288648231463660
     0.0104676755865118   -0.0132426222935186    5.9343279249447205
   K    Dy   F 
     3     1     6
Direct
  0.0909927272416719  0.7734244582321725  0.0747688371628789
  0.0909436568244764  0.2734389593705150  0.5748480424967793
  0.5914153862254452  0.2737901850510338  0.0746395097256046
  0.5904751157537668  0.7736310885238136  0.5747839190940275
  0.4204782836570606  0.5365044198527216  0.8116478704989085
  0.7603835973489674  0.0102624904697729  0.3375491644845945
  0.8271245945228833  0.5358319699960526  0.4058388864469680
  0.3534845262968281  0.6025336870601007  0.3369915245339869
  0.3539201420607647  0.0108765355461257  0.7449628405545062
  0.8289190158688216  0.9436001982769993  0.8111925140086275
 
  0.00000000E+00  0.00000000E+00  0.00000000E+00
  0.00000000E+00  0.00000000E+00  0.00000000E+00
  0.00000000E+00  0.00000000E+00  0.00000000E+00
  0.00000000E+00  0.00000000E+00  0.00000000E+00
  0.00000000E+00  0.00000000E+00  0.00000000E+00
  0.00000000E+00  0.00000000E+00  0.00000000E+00
  0.00000000E+00  0.00000000E+00  0.00000000E+00
  0.00000000E+00  0.00000000E+00  0.00000000E+00
  0.00000000E+00  0.00000000E+00  0.00000000E+00
  0.00000000E+00  0.00000000E+00  0.00000000E+00
