F  Ga F  K  F  Ga F  Na F                                                                           
 1.000
    5.3353741535871704    0.0000000000000000    0.0000000000000000
    0.2739475331061818    5.3648071898591123    0.0000000000000000
    0.0362462423913124    0.0412695272160596    6.3273482486765813
   F    Ga   K    Na
    8    2    1    1
Direct
    0.1278039664030075    0.5325692296028136    0.3731229901313782      F1
    0.1375298053026199    0.5427292585372924    0.8738963007926941      F2
    0.0484226718544960    0.9504275321960448    0.1402363479137421      F3
    0.4691074788570403    0.8726923465728760    0.3721577227115632      F4
    0.5494425892829894    0.4542386233806610    0.6048084497451782      F5
    0.0472405515611172    0.9499269723892212    0.6048877239227295      F6
    0.5498325228691100    0.4564537107944487    0.1400977522134781      F7
    0.4588679969310760    0.8620129227638244    0.8716502785682678      F8
    0.2979688942432402    0.7027323842048643    0.6189603209495544     Ga1
    0.2988379001617431    0.7029155492782593    0.1275222301483154     Ga2
    0.7983785867691036    0.2021394968032837    0.8728553056716921      K1
    0.7988107800483701    0.2027768343687057    0.3723257184028625     Na1
