Li3 Ni2 F7                              
   1.00000000000000     
     4.9028349433266714    0.0373537186755842    1.0454210196598801
     1.4068330331026258    5.2579169289922429   -0.0971910541465458
     0.0141232634158169   -0.0231075878297693    5.2308674229294176
   Li   Ni   F 
     3     2     7
Direct
  0.4352355503761367  0.7521270724131722  0.1788838521428475
  0.2387181015357184  0.1570685095539206  0.8626049563292700
  0.1403286288656567  0.3710922821809399  0.3609057243497463
  0.8561072196310044  0.9566350252432095  0.5070928429039333
  0.5386923842065295  0.5241544684723176  0.6712409184259789
  0.7530377268815670  0.6488755079030630  0.3576515781012755
  0.1145261949078072  0.0496619747533958  0.1985355588487307
  0.1954393490340005  0.7161452728097335  0.5562416365919678
  0.4918265497116310  0.2184231603400569  0.4986849875792352
  0.5961618923663506  0.8392458938289938  0.8177524195298046
  0.3398979275847125  0.4551014468436452  0.0168994594281460
  0.9281849655228361  0.2620168014206918  0.6956287331263891
 
  0.00000000E+00  0.00000000E+00  0.00000000E+00
  0.00000000E+00  0.00000000E+00  0.00000000E+00
  0.00000000E+00  0.00000000E+00  0.00000000E+00
  0.00000000E+00  0.00000000E+00  0.00000000E+00
  0.00000000E+00  0.00000000E+00  0.00000000E+00
  0.00000000E+00  0.00000000E+00  0.00000000E+00
  0.00000000E+00  0.00000000E+00  0.00000000E+00
  0.00000000E+00  0.00000000E+00  0.00000000E+00
  0.00000000E+00  0.00000000E+00  0.00000000E+00
  0.00000000E+00  0.00000000E+00  0.00000000E+00
  0.00000000E+00  0.00000000E+00  0.00000000E+00
  0.00000000E+00  0.00000000E+00  0.00000000E+00
