Li7 Mn2 F11                             
   1.00000000000000     
     3.8772073447370783   -0.0022782549762981    0.7400395036939142
     2.0089083095562286    4.6678538006394081    0.0182400807954933
    -0.0811756179719260   -0.2122960670579782   10.9079040995495227
   Li   Mn   F 
     7     2    11
Direct
  0.8038836340477031  0.0787068854468438  0.9301270869722166
  0.1195613375798053  0.5022887626027712  0.8746085358330541
  0.5794547595025672  0.9573679177842475  0.4990241123220968
  0.3562563704904784  0.8379952065311516  0.0679665257283686
  0.2058259484898790  0.6008836125360355  0.6045504708396717
  0.9545568958995260  0.3146964112658873  0.3942642149994376
  0.0388361495701814  0.4122522836093080  0.1238251592855336
  0.2914691190198009  0.7123788292392479  0.3218450221459861
  0.8708578582282472  0.2033207582601720  0.6758202609822428
  0.4830102276291730  0.4946483402428799  0.1566113011380008
  0.1537179691351619  0.0692665237183258  0.2377345325007068
  0.6786211317181606  0.4204883179406677  0.8409935238448089
  0.7901912720924087  0.7021044993124148  0.3348278002420582
  0.7381266953113529  0.5612996196799985  0.5806869498384878
  0.9174908529368166  0.7549209600923718  0.0234304000577775
  0.0081395948035022  0.8466913760893011  0.7603677136151004
  0.3730440907313209  0.2131568371849226  0.6627230311021610
  0.2403597413102455  0.1611377441998763  0.9744852680065801
  0.4236383508216224  0.3543997663586089  0.4171214551334712
  0.0799959509891769  0.9580080320117952  0.4988403818934802
 
  0.00000000E+00  0.00000000E+00  0.00000000E+00
  0.00000000E+00  0.00000000E+00  0.00000000E+00
  0.00000000E+00  0.00000000E+00  0.00000000E+00
  0.00000000E+00  0.00000000E+00  0.00000000E+00
  0.00000000E+00  0.00000000E+00  0.00000000E+00
  0.00000000E+00  0.00000000E+00  0.00000000E+00
  0.00000000E+00  0.00000000E+00  0.00000000E+00
  0.00000000E+00  0.00000000E+00  0.00000000E+00
  0.00000000E+00  0.00000000E+00  0.00000000E+00
  0.00000000E+00  0.00000000E+00  0.00000000E+00
  0.00000000E+00  0.00000000E+00  0.00000000E+00
  0.00000000E+00  0.00000000E+00  0.00000000E+00
  0.00000000E+00  0.00000000E+00  0.00000000E+00
  0.00000000E+00  0.00000000E+00  0.00000000E+00
  0.00000000E+00  0.00000000E+00  0.00000000E+00
  0.00000000E+00  0.00000000E+00  0.00000000E+00
  0.00000000E+00  0.00000000E+00  0.00000000E+00
  0.00000000E+00  0.00000000E+00  0.00000000E+00
  0.00000000E+00  0.00000000E+00  0.00000000E+00
  0.00000000E+00  0.00000000E+00  0.00000000E+00
