Li2 Ga2 F8                              
   1.00000000000000     
     4.6348021541300142    0.0110879748202700   -0.0208894081669262
    -0.0130453821944422    4.6462035597864491   -0.0191577486516604
     0.0221021858729915    0.0195387899854499    6.0959146329241802
   Li   Ga   F 
     2     2     8
Direct
  0.2349627511709587  0.1437362545113975  0.0698710374592759
  0.7332044005629774  0.6437059626716179  0.2937688537051550
  0.7342124277746171  0.6443103908979171  0.8145638821881771
  0.2338608011027310  0.1442630670857480  0.5489334738525043
  0.0374704871095956  0.3396279825204555  0.3273893184186628
  0.5349616769202133  0.4451857958387004  0.5739163451860666
  0.4335100880607252  0.9451402118614026  0.7892974320928278
  0.9337344438584939  0.8430476174609609  0.5740926685299673
  0.4294534614699288  0.9484671184739945  0.3273417869376387
  0.0350444295769077  0.3432066505780774  0.7893243724134170
  0.5381108460422197  0.4486265338945731  0.0361214971823946
  0.9296459131138802  0.8400424433065264  0.0363878721278122
 
  0.00000000E+00  0.00000000E+00  0.00000000E+00
  0.00000000E+00  0.00000000E+00  0.00000000E+00
  0.00000000E+00  0.00000000E+00  0.00000000E+00
  0.00000000E+00  0.00000000E+00  0.00000000E+00
  0.00000000E+00  0.00000000E+00  0.00000000E+00
  0.00000000E+00  0.00000000E+00  0.00000000E+00
  0.00000000E+00  0.00000000E+00  0.00000000E+00
  0.00000000E+00  0.00000000E+00  0.00000000E+00
  0.00000000E+00  0.00000000E+00  0.00000000E+00
  0.00000000E+00  0.00000000E+00  0.00000000E+00
  0.00000000E+00  0.00000000E+00  0.00000000E+00
  0.00000000E+00  0.00000000E+00  0.00000000E+00
