Li1 Tb2 F7
1.0
   4.2772130966186532    0.0000000000000000    1.1550108194351196
   0.4757245039001252    4.3265234894290421    1.0050171613693228
   0.0000000000000000    0.0000000000000000    7.0005984306335449
Li Tb F
1 2 7
direct
   0.2784888446331024    0.2903295755386353    0.7293051481246948 Li
   0.7037070393562317    0.6304408311843872    0.0170297175645828 Tb
   0.8516446948051453    0.9482371807098389    0.4424321651458740 Tb
   0.6335806846618652    0.0378474369645119    0.7676012516021729 F
   0.2548568546772003    0.5210237503051758    0.9396188855171204 F
   0.3008037507534027    0.0592192485928535    0.5193242430686951 F
   0.7773368954658508    0.0933803468942642    0.1126842126250267 F
   0.2768445014953614    0.7895988821983336    0.2293401360511780 F
   0.9224816560745239    0.5423645973205566    0.6916379928588867 F
   0.7772242426872253    0.4860702753067016    0.3475796282291412 F
