Cs2 Na1 Ho1 F6                          
   1.00000000000000     
     4.5116447472375238   -0.0078589857592355    0.0094475536630634
     0.0103708319777658    6.5866505952843699    0.0142245008837736
    -0.0160834547725651   -0.0145575865945840    6.5845250038915495
   Cs   Na   Ho   F 
     2     1     1     6
Direct
  0.6425523026939619  0.0259193832207386  0.4027631792956745
  0.6424009253532316  0.5258470555679733  0.9030109177992828
  0.1423222576932570  0.0260372951210458  0.9029135691530311
  0.1423643950825169  0.5259618295642516  0.4029735936928568
  0.6424325164345939  0.5256486146026995  0.4033420077460864
  0.6422196938996734  0.0260448807025011  0.9025352969437413
  0.1426049333629116  0.2955126439430483  0.6337128983558918
  0.1423146293824325  0.7565863249906263  0.6331366551878549
  0.1426079011669827  0.7567776529458046  0.1731140894614526
  0.1422129840596957  0.2956588224519586  0.1724814320812301
 
  0.00000000E+00  0.00000000E+00  0.00000000E+00
  0.00000000E+00  0.00000000E+00  0.00000000E+00
  0.00000000E+00  0.00000000E+00  0.00000000E+00
  0.00000000E+00  0.00000000E+00  0.00000000E+00
  0.00000000E+00  0.00000000E+00  0.00000000E+00
  0.00000000E+00  0.00000000E+00  0.00000000E+00
  0.00000000E+00  0.00000000E+00  0.00000000E+00
  0.00000000E+00  0.00000000E+00  0.00000000E+00
  0.00000000E+00  0.00000000E+00  0.00000000E+00
  0.00000000E+00  0.00000000E+00  0.00000000E+00
