Cs3 Sm1 F5
1.0
   5.5478334426879892    0.0000000000000000   -2.6884360313415514
  -1.8622957778300830    5.9884890477732862   -3.6872942447662345
   0.0000000000000000    0.0000000000000000    7.2179794311523438
Cs Sm F
3 1 5
direct
   0.7310974597930908    0.0293352603912354    0.6179266571998596 Cs
   0.9902280569076538    0.7931886315345764    0.1439008265733719 Cs
   0.2565804421901703    0.5543224215507508    0.6691287159919740 Cs
   0.5234326124191285    0.2926700711250306    0.1428885608911515 Sm
   0.4824602603912354    0.5902701616287231    0.1424011588096619 F
   0.2792599499225616    0.0784278512001038    0.7175980210304261 F
   0.4758227467536926    0.9931992888450623    0.1421777904033661 F
   0.8786656856536865    0.2909398674964905    0.1444981992244722 F
   0.7042252421379089    0.5046156644821168    0.5681836605072021 F
