K1 As1 F6
1.0
   4.7465281486511230    0.0000000000000000   -2.7608072757720934
  -0.0271477983503081    4.6597533964853755    0.0109469629824165
   0.0000000000000000    0.0000000000000000    5.5231080055236816
K As F
1 1 6
direct
   0.8847412467002869    0.6374093294143677    0.5943689942359923 K
   0.2161538451910019    0.9801418781280518    0.2614091336727142 As
   0.0653759017586708    0.1905010342597961    0.9576590657234192 F
   0.3636426031589508    0.7608606219291687    0.5543492436408998 F
   0.5206641554832458    0.1892739832401276    0.4129921197891235 F
   0.0646816566586494    0.1888762116432190    0.4122611582279205 F
   0.9234474897384644    0.7608415484428406    0.1137394607067108 F
   0.3640951514244080    0.7637201547622681    0.1153455525636673 F
