Li2 Tb1 Hf2 F13                         
   1.00000000000000     
     5.3791690903914828    0.0010430260971314   -0.0716350211197856
     0.9151153493051396    5.2886333581385232   -0.0596786502033684
    -0.0207019926393366    0.0126304469377521    9.5742740408324103
   Li   Tb   Hf   F 
     2     1     2    13
Direct
  0.0664018863485280  0.3801610904992487  0.1723036367491799
  0.2197799984063104  0.5254209993729733  0.4439558659320453
  0.6524232349184327  0.9565269586198486  0.6653455213831186
  0.6420745208242745  0.9520928111639942  0.2875057494828259
  0.1558110057868582  0.4585635863032662  0.7868224805795422
  0.3495297056925143  0.2490437428488698  0.2973595828203631
  0.4513367845484730  0.1804179438246029  0.8417722467008235
  0.1323909141185056  0.4328660955881911 -0.0083428799439722
  0.4811329906506224  0.7849927752837872  0.4557126743193601
  0.9153499610277603  0.2215140743255644  0.7409949510568742
  0.3988862214771063  0.6989231183393939  0.7517107096284519
  0.8367545040825601  0.1502001602005870  0.1747630324322269
  0.9826915813752654  0.6474144125192958  0.5997413033238855
  0.4652301002990697  0.7730719175707094  0.1554792922044086
  0.7909788469150152  0.1020115672512050  0.4640841846140860
  0.8788053903928567  0.7537858428950241  0.8422559232108264
  0.9414795412895577  0.6617197403433756  0.2985560767934253
  0.3367417903836107  0.2835199982818442  0.5996936580086770
 
  0.00000000E+00  0.00000000E+00  0.00000000E+00
  0.00000000E+00  0.00000000E+00  0.00000000E+00
  0.00000000E+00  0.00000000E+00  0.00000000E+00
  0.00000000E+00  0.00000000E+00  0.00000000E+00
  0.00000000E+00  0.00000000E+00  0.00000000E+00
  0.00000000E+00  0.00000000E+00  0.00000000E+00
  0.00000000E+00  0.00000000E+00  0.00000000E+00
  0.00000000E+00  0.00000000E+00  0.00000000E+00
  0.00000000E+00  0.00000000E+00  0.00000000E+00
  0.00000000E+00  0.00000000E+00  0.00000000E+00
  0.00000000E+00  0.00000000E+00  0.00000000E+00
  0.00000000E+00  0.00000000E+00  0.00000000E+00
  0.00000000E+00  0.00000000E+00  0.00000000E+00
  0.00000000E+00  0.00000000E+00  0.00000000E+00
  0.00000000E+00  0.00000000E+00  0.00000000E+00
  0.00000000E+00  0.00000000E+00  0.00000000E+00
  0.00000000E+00  0.00000000E+00  0.00000000E+00
  0.00000000E+00  0.00000000E+00  0.00000000E+00
