Na3 Nd3 F12                             
   1.00000000000000     
     5.9254784526897257   -0.0092740877432411   -3.4982723138761793
    -1.6212293258477954    5.1007455763180456    1.7755181987404034
     0.0179329641645919    0.0082369353893283    8.9277344892254931
   Na   Nd   F 
     3     3    12
Direct
  0.7317321640919482  0.8560056611075982  0.2049840205031225
  0.2064463450481279  0.5150701765179116  0.3618241469301963
  0.7247191480031465  0.5052259002388251  0.8997504317525022
  0.2143978313191643  0.1728072088622645  0.0552091156313319
  0.2316192018243279  0.8526047268858356  0.7114683288238016
  0.7183372162411044  0.1832858001733220  0.5372951279012322
  0.4772985583473884  0.2507511453960798  0.6292791814428816
  0.4785258441691293  0.9503887621079676  0.2957163775026106
  0.9738644929140954  0.4266809432167075  0.7898185861133499
  0.9776031639901700  0.2653361299293663  0.1231708656214743
  0.9767130338363256  0.0903603838235122  0.4778933761499816
  0.4433858224683213  0.5882159757574699  0.9523505922255672
  0.9769145565422955  0.5928066425464559  0.4780093221994901
  0.9792958213803830  0.7756227594592692  0.1238343155287148
  0.4778599421516311  0.4193946547005973  0.2958871291121786
  0.9740549228129386  0.9441277282135593  0.7901116974306710
  0.4777151299611980  0.7820573749026697  0.6292658007335994
  0.4429952169304318  0.0868579387444166  0.9524113334033266
 
  0.00000000E+00  0.00000000E+00  0.00000000E+00
  0.00000000E+00  0.00000000E+00  0.00000000E+00
  0.00000000E+00  0.00000000E+00  0.00000000E+00
  0.00000000E+00  0.00000000E+00  0.00000000E+00
  0.00000000E+00  0.00000000E+00  0.00000000E+00
  0.00000000E+00  0.00000000E+00  0.00000000E+00
  0.00000000E+00  0.00000000E+00  0.00000000E+00
  0.00000000E+00  0.00000000E+00  0.00000000E+00
  0.00000000E+00  0.00000000E+00  0.00000000E+00
  0.00000000E+00  0.00000000E+00  0.00000000E+00
  0.00000000E+00  0.00000000E+00  0.00000000E+00
  0.00000000E+00  0.00000000E+00  0.00000000E+00
  0.00000000E+00  0.00000000E+00  0.00000000E+00
  0.00000000E+00  0.00000000E+00  0.00000000E+00
  0.00000000E+00  0.00000000E+00  0.00000000E+00
  0.00000000E+00  0.00000000E+00  0.00000000E+00
  0.00000000E+00  0.00000000E+00  0.00000000E+00
  0.00000000E+00  0.00000000E+00  0.00000000E+00
