Rb4 Al2 F10
1.0
   3.9087433815002441    0.0000000000000000    0.0017420481890438
   1.9825267471593535    5.7259886186480813    3.0433726310729980
   0.0000000000000000    0.0000000000000000   12.4014406204223633
Rb Al F
4 2 10
direct
   0.3149791359901428    0.5068826675415039    0.3641630411148071 Rb
   0.9782538414001463    0.1760557889938355    0.6988004446029662 Rb
   0.3118705153465270    0.5100535154342651    0.8630084395408629 Rb
   0.9755710363388060    0.1778741329908371    0.1968756169080734 Rb
   0.6438735127449036    0.8452549576759338    0.0314137563109398 Al
   0.6451949477195740    0.8406340479850769    0.5305802226066588 Al
   0.5300384759902954    0.0705602467060089    0.8716978430747986 F
   0.7572644948959348    0.6220509409904480    0.9829517006874084 F
   0.5308021903038025    0.0702510550618172    0.0783288404345512 F
   0.7584960460662841    0.6188104152679443    0.6901853084564209 F
   0.7565011978149414    0.6199639439582825    0.1893140971660614 F
   0.1462246179580688    0.8404567241668701    0.5302848815917970 F
   0.7606889009475707    0.6124815940856934    0.4849772155284882 F
   0.1443057209253311    0.8447617888450624    0.0312927700579166 F
   0.5310429930686951    0.0675758644938469    0.5770631432533264 F
   0.5342883467674255    0.0637615323066711    0.3717275559902191 F
