Na2 Li1 Cd2 F7
1.0
   4.5953698158264160    0.0000000000000000   -1.2504187822341910
  -1.6099881352696459    5.2044818220012612    1.9924585819244391
   0.0000000000000000    0.0000000000000000    6.9092669486999512
Na Li Cd F
2 1 2 7
direct
   0.7965999245643616    0.7044767737388610    0.4685743749141693 Na
   0.4305623173713684    0.1235501468181610    0.3244570195674896 Na
   0.3383509218692779    0.4947628378868102    0.6818329095840453 Li
   0.0757496356964111    0.5796995759010315    0.1035765260457992 Cd
   0.7135053873062134    0.0515006557106972    0.8962586522102355 Cd
   0.8865775465965271    0.1387135386466980    0.2267885804176330 F
   0.2140624970197677    0.6798900365829467    0.4027652144432067 F
   0.2483259439468384    0.0098049622029066    0.9877776503562926 F
   0.5997644662857056    0.5979884266853333    0.1432548761367798 F
   0.0312088187783956    0.4615235328674316    0.8204646110534667 F
   0.6677467226982117    0.8072375655174255    0.7059675455093383 F
   0.4848308861255646    0.2821515202522278    0.5973827242851257 F
