Rb2 S2 O6 F2
1.0
   5.1644992828369141    0.0000000000000000   -1.9639347791671753
  -0.0234981119573967    5.5785547319293602    0.0592766739428043
   0.0000000000000000    0.0000000000000000    7.8920598030090332
Rb S O F
2 2 6 2
direct
   0.7980649471282959    0.5621446967124939    0.8799248933792114 Rb
   0.0372501052916050    0.0582909435033798    0.3604954183101654 Rb
   0.5306193232536316    0.5824338197708130    0.3466849625110626 S
   0.3045090734958649    0.0872920006513596    0.8928153514862061 S
   0.2399165779352188    0.2800192534923553    0.7635304927825928 O
   0.7065294384956360    0.5540586709976196    0.2481131404638290 O
   0.1274490654468536    0.0548126250505447    0.9901561141014099 O
   0.5802348256111145    0.0554369427263737    0.9925003647804260 O
   0.2537353336811066    0.5538331270217896    0.2460837513208389 O
   0.5970095992088318    0.7716311216354371    0.4788978397846222 O
   0.5969704985618591    0.3388052284717560    0.4796375930309296 F
   0.2356455326080322    0.8472391963005066    0.7568643689155579 F
