Li4 Mn1 F6
1.0
   4.5270414352416992    0.0000000000000000    2.6338241100311284
   1.6090048009595808    4.8292727179093049    0.9315001964569088
   0.0000000000000000    0.0000000000000000    5.1714973449707031
Li Mn F
4 1 6
direct
   0.2223369181156158    0.2917071878910065    0.5581822991371155 Li
   0.3833669722080230    0.7922762632369996    0.2381007522344589 Li
   0.7429139018058777    0.7906729578971863    0.5220448970794679 Li
   0.9013836979866028    0.2929444909095765    0.2025439292192459 Li
   0.5615425705909729    0.2920621633529663    0.8809691667556763 Mn
   0.6133046150207520    0.0500942096114159    0.2457097619771957 F
   0.8087799549102784    0.5320546627044678    0.8802636861801147 F
   0.3150650858879089    0.0509359501302242    0.8801870942115784 F
   0.9782366752624512    0.0500050224363804    0.5149797797203064 F
   0.5113770961761475    0.5342706441879274    0.5142591595649719 F
   0.1458544880151749    0.5333712697029114    0.2448533177375793 F
