Mg1 Sb2 F8
1.0
   5.5057554244995117    0.0000000000000000   -1.3455893993377688
   0.7903806215210797    4.9370573765646668    1.1326192617416391
   0.0000000000000000    0.0000000000000000    6.7498250007629395
Mg Sb F
1 2 8
direct
   0.7231512665748596    0.4093139469623565    0.7890877723693848 Mg
   0.5847663879394531    0.8009408712387085    0.1786332726478577 Sb
   0.1448696553707123    0.9307316541671752    0.6025294661521912 Sb
   0.4138852059841157    0.6050046086311340    0.6125890612602234 F
   0.8484907150268556    0.1472696065902710    0.6641036868095398 F
   0.5879465937614441    0.1060971394181251    0.9445180296897888 F
   0.9569052457809450    0.6319242119789122    0.6626654863357544 F
   0.7676219344139099    0.5807771682739257    0.0108471829444170 F
   0.2665759623050690    0.7907724976539612    0.9427301287651062 F
   0.3954917490482330    0.0858455002307892    0.2604337334632874 F
   0.9138267636299134    0.9562125802040099    0.3065866231918335 F
