Y3 F9
1.0
   4.3836674690246582    0.0000000000000000    0.0140069266781210
   0.0342403248222516    7.2956392746514904    0.0531481914222251
   0.0000000000000000    0.0000000000000000    8.6121282577514648
Y F
3 9
direct
   0.2918292880058289    0.4138260483741760    0.9156892895698547 Y
   0.2970075011253357    0.4164479076862335    0.4218353927135468 Y
   0.2939754426479340    0.9166343212127686    0.6682366132736206 Y
   0.2926852703094482    0.1157438904047012    0.8703074455261230 F
   0.2957270443439484    0.7141146063804626    0.4661372601985931 F
   0.2927027940750122    0.4169573485851287    0.1663860082626343 F
   0.7941406965255737    0.9144296646118163    0.6660276651382446 F
   0.2923235893249512    0.7128953933715820    0.8707494735717773 F
   0.7955097556114197    0.4175868332386017    0.4177156090736389 F
   0.2932174801826477    0.4139542281627654    0.6689352393150330 F
   0.2964464128017426    0.1183390989899635    0.4654221236705780 F
   0.7928831577301025    0.4144083559513091    0.9191181063652039 F
