Li2 Sn2 F6                              
   1.00000000000000     
     5.6811450665587797   -0.0330546086864934   -0.8240607787752072
    -2.9482801903470883    4.3902695451451352   -2.3003361601848638
     0.0273169468361431    0.0562150087941065    5.8435363592584277
   Li   Sn   F 
     2     2     6
Direct
  0.4968300088266581  0.4372996146543329  0.3200001254876026
  0.0002821219665105  0.4363941683651100  0.8189314277051444
  0.2165998027486562  0.8666889041712316  0.4693436689626172
  0.7201350739164801  0.8685818438133974 -0.0305627168628835
  0.2794194372651080  0.5395508222402847  0.6697260259996168
  0.7784100145088422  0.5378923663684069  0.1719651268314622
  0.7538683647482936  0.0115879345746818  0.6725802429633908
  0.2550791822682390  0.5355348987478890  0.1672740285290121
  0.2482521993959866  0.0117268519506732  0.1720071282021244
  0.7549438858412026  0.5332936967985628  0.6691922621717136
 
  0.00000000E+00  0.00000000E+00  0.00000000E+00
  0.00000000E+00  0.00000000E+00  0.00000000E+00
  0.00000000E+00  0.00000000E+00  0.00000000E+00
  0.00000000E+00  0.00000000E+00  0.00000000E+00
  0.00000000E+00  0.00000000E+00  0.00000000E+00
  0.00000000E+00  0.00000000E+00  0.00000000E+00
  0.00000000E+00  0.00000000E+00  0.00000000E+00
  0.00000000E+00  0.00000000E+00  0.00000000E+00
  0.00000000E+00  0.00000000E+00  0.00000000E+00
  0.00000000E+00  0.00000000E+00  0.00000000E+00
