K3 Bi1 Cl4 F2                           
   1.00000000000000     
     6.8778987712619895   -0.2416774687903949   -1.5244157458398349
    -2.0759175285807490    6.5761674849569713   -1.4949601880088081
    -0.0354708434705573   -0.0214406393497717    6.3935297481040356
   K    Bi   Cl   F 
     3     1     4     2
Direct
  0.7254056731179469  0.1537642568246990  0.4936018253515125
  0.1157401234865579  0.0502699144290904  0.0892704989786114
  0.2245140610208516  0.6555868876902388  0.4927763242780407
  0.6030983970749085  0.5379346316295954  0.0357456002659140
  0.7526985798365182  0.6928322952146746  0.7127314091837993
  0.2766241424398718  0.2146706799792470  0.6642695402523392
  0.3767561050829499  0.7908957587246794  0.0879741260345700
  0.8565854235469859  0.3117871686556337  0.0884887664769080
  0.4475931619674536  0.3813266936070591  0.2470527309119166
  0.8666336105898657  0.7994454936303385  0.2753748734913886
 
  0.00000000E+00  0.00000000E+00  0.00000000E+00
  0.00000000E+00  0.00000000E+00  0.00000000E+00
  0.00000000E+00  0.00000000E+00  0.00000000E+00
  0.00000000E+00  0.00000000E+00  0.00000000E+00
  0.00000000E+00  0.00000000E+00  0.00000000E+00
  0.00000000E+00  0.00000000E+00  0.00000000E+00
  0.00000000E+00  0.00000000E+00  0.00000000E+00
  0.00000000E+00  0.00000000E+00  0.00000000E+00
  0.00000000E+00  0.00000000E+00  0.00000000E+00
  0.00000000E+00  0.00000000E+00  0.00000000E+00
