Na1 Ca1 Pr1 F6                          
   1.00000000000000     
     3.8370469536786129   -0.0181064553263339   -1.1546191900986504
    -0.6517788524336389    5.0887086098023167   -2.2633399006740627
    -0.0339094997779506   -0.0320788238770353    6.8528823400983718
   Na   Ca   Pr   F 
     1     1     1     6
Direct
  0.9779430327023089  0.9537531964771471  0.6393019269257266
  0.3232842057689828  0.2994788246486670  0.3308960878368782
  0.6475607889314106  0.6231617522922052  0.9784337445864926
  0.8093154482526750  0.0431809028184380  0.3026600451869315
  0.1551258141400314  0.8731225887793052  0.9935619082003876
  0.4826969391643724  0.6988971497222127  0.6510267272494221
  0.1553982024999791  0.3883808613290461  0.9936415294367167
  0.4857881544515548  0.2204213353952795  0.6520194271169781
  0.8102711963562556  0.5271102332370819  0.3032371710130328
 
  0.00000000E+00  0.00000000E+00  0.00000000E+00
  0.00000000E+00  0.00000000E+00  0.00000000E+00
  0.00000000E+00  0.00000000E+00  0.00000000E+00
  0.00000000E+00  0.00000000E+00  0.00000000E+00
  0.00000000E+00  0.00000000E+00  0.00000000E+00
  0.00000000E+00  0.00000000E+00  0.00000000E+00
  0.00000000E+00  0.00000000E+00  0.00000000E+00
  0.00000000E+00  0.00000000E+00  0.00000000E+00
  0.00000000E+00  0.00000000E+00  0.00000000E+00
