Li5 F5
1.0
   4.9929628372192392    0.0000000000000000    2.8086075782775879
   1.6448747582042822    4.7161819415795989    2.8111436367034908
   0.0000000000000000    0.0000000000000000    5.7560539245605469
Li F
5 5
direct
   0.3296209871768951    0.0425394587218761    0.3337883651256561 Li
   0.9643965959548950    0.6773702502250671    0.4246098101139069 Li
   0.3283240497112274    0.0411105379462242    0.7897227406501771 Li
   0.8708956837654114    0.0409623421728611    0.7913458347320558 Li
   0.3289821445941925    0.5831469297409058    0.7917436957359315 Li
   0.0960571467876434    0.2789184749126435    0.5593624114990234 F
   0.0977292731404304    0.8101918697357178    0.5581405162811279 F
   0.4638804793357849    0.1773605197668076    0.9273791313171388 F
   0.5672520995140076    0.8089821934700013    0.5587403178215027 F
   0.0975892320275307    0.8097260594367981    0.0280130431056023 F
