Rb1 Na1 Li4 F6
1.0
   5.3591232299804688    0.0000000000000000   -1.9414616823196411
   0.0821205145729419    5.4943609474337896    0.4935614764690407
   0.0000000000000000    0.0000000000000000    5.9371366500854492
Rb Na Li F
1 1 4 6
direct
   0.2417085319757462    0.5321248173713684    0.5810186862945557 Rb
   0.8214672803878784    0.1795539259910583    0.8492728471755981 Na
   0.5192123055458069    0.4897780120372772    0.1807298660278320 Li
   0.3001782298088074    0.0711719319224358    0.2331025451421738 Li
   0.7860002517700195    0.9497803449630737    0.4089469313621521 Li
   0.9669633507728577    0.6701039671897888    0.9948023557662964 Li
   0.9863770604133606    0.9279657006263733    0.2136487066745758 F
   0.1834652274847031    0.3778605163097382    0.0368445068597794 F
   0.6062297224998474    0.2344243675470352    0.4357195198535919 F
   0.4890599548816681    0.7831701636314392    0.2942421734333038 F
   0.6775544285774231    0.5012401938438416    0.9593573212623596 F
   0.9805300831794739    0.8666401505470277    0.7297532558441162 F
