Li2 Sc2 F8
1.0
   4.7309327125549316    0.0000000000000000    0.0152721833437681
   0.0370214448352954    4.7376926696750372    0.0249599758535627
   0.0000000000000000    0.0000000000000000    6.1697978973388672
Li Sc F
2 2 8
direct
   0.5411245822906494    0.0382886268198490    0.3821187615394592 Li
   0.0411073043942451    0.5381050109863281    0.1507266759872437 Li
   0.5406454205513000    0.0385869666934013    0.9068405628204346 Sc
   0.0411262027919292    0.5379633903503418    0.6270277500152588 Sc
   0.3442575931549072    0.2361095994710922    0.6483185291290283 F
   0.8436994552612304    0.3415572047233582    0.8844999670982361 F
   0.2383077889680862    0.7358906269073486    0.8847045898437500 F
   0.2428572475910187    0.7409974932670593    0.3959564268589020 F
   0.7415570616722107    0.8374348878860474    0.1377706229686737 F
   0.8395715355873108    0.3363722562789917    0.3961690068244934 F
   0.3389489948749542    0.2405171692371368    0.1377208083868027 F
   0.7387765645980835    0.8413606286048889    0.6489059329032898 F
