Pr2 O2 F2                               
   1.00000000000000     
     4.0305231733241120    0.0126214050762645   -0.0038463926710293
    -0.0100175026188337    4.0317193584159456   -0.0156950785663684
     0.0049738854449325    0.0091496603486768    5.8944812442970971
   Pr   O    F 
     2     2     2
Direct
  0.5138602876803794  0.0419637198124108  0.9773807016799000
  0.0140079611913014  0.5403307921855134  0.5705604151349277
  0.0141181643357836  0.0408403621522467  0.7738804342459059
  0.5139599015250024  0.5413681832088758  0.7739622793084497
  0.5143737143554339  0.0411021758933127  0.3810978411236800
  0.0143155536646251  0.5400013232824079  0.1668911839081755
 
  0.00000000E+00  0.00000000E+00  0.00000000E+00
  0.00000000E+00  0.00000000E+00  0.00000000E+00
  0.00000000E+00  0.00000000E+00  0.00000000E+00
  0.00000000E+00  0.00000000E+00  0.00000000E+00
  0.00000000E+00  0.00000000E+00  0.00000000E+00
  0.00000000E+00  0.00000000E+00  0.00000000E+00
