Zr3 O1 F10                              
   1.00000000000000     
     5.1909546455533624   -0.0438455606252627   -2.2211580930157191
    -0.6511638242684149    5.1664659798573247   -2.2027744364930575
    -0.1367889372861306   -0.1351882689608923    8.1257254847448337
   Zr   O    F 
     3     1    10
Direct
  0.2760243351247388  0.2182034151204287  0.6151947049779904
  0.7360321842140445  0.2078263997099452  0.0860870232171694
  0.2925665909683609  0.7029156990373918  0.0836192083026700
  0.5453192200457515  0.9569423218003217  0.1104940678498507
  0.5996833047489797  0.0514977307845574  0.7756696981655965
  0.0082996502627914  0.4798383472544909  0.0976794425825120
 -0.0093773265056435 -0.0073159701618588  0.5742736149780320
  0.0064277018842368  0.9482950174002293  0.0437117913788716
  0.6251624323163877  0.5600945594289861  0.2512386127587726
  0.5639498437118854  0.5006952839001023  0.7321126238560592
  0.1211905383962817  0.5621060026919280  0.7744206394608560
  0.0311089884077478  0.3102957695945833  0.3814013680646052
  0.3461406646770319  0.2987590752143531  0.9282405913420720
  0.3443945456284585  0.9417627013310405  0.3811332130383833
 
  0.00000000E+00  0.00000000E+00  0.00000000E+00
  0.00000000E+00  0.00000000E+00  0.00000000E+00
  0.00000000E+00  0.00000000E+00  0.00000000E+00
  0.00000000E+00  0.00000000E+00  0.00000000E+00
  0.00000000E+00  0.00000000E+00  0.00000000E+00
  0.00000000E+00  0.00000000E+00  0.00000000E+00
  0.00000000E+00  0.00000000E+00  0.00000000E+00
  0.00000000E+00  0.00000000E+00  0.00000000E+00
  0.00000000E+00  0.00000000E+00  0.00000000E+00
  0.00000000E+00  0.00000000E+00  0.00000000E+00
  0.00000000E+00  0.00000000E+00  0.00000000E+00
  0.00000000E+00  0.00000000E+00  0.00000000E+00
  0.00000000E+00  0.00000000E+00  0.00000000E+00
  0.00000000E+00  0.00000000E+00  0.00000000E+00
