Zn1 Sb1 F5
1.0
   4.7458090782165527    0.0000000000000000   -0.9093930721282960
   1.4753542366387504    4.8428082087467796    0.3149784803390511
   0.0000000000000000    0.0000000000000000    5.0701856613159180
Zn Sb F
1 1 5
direct
   0.8091472983360289    0.4109188020229340    0.3898231089115143 Zn
   0.1061328649520874    0.8469504714012146    0.9292863011360168 Sb
   0.8068771958351135    0.7293524146080017    0.0856818035244941 F
   0.3837572932243347    0.5327362418174744    0.2431132644414902 F
   0.0366740711033344    0.1116656512022018    0.2358846217393875 F
   0.0290620103478432    0.5441869497299194    0.6743718981742859 F
   0.7375566363334656    0.1320386379957199    0.6811879873275757 F
