Al2 F6
1.0
   4.5947766304016113    0.0000000000000000   -0.0042276596650483
  -2.3098231281246062    3.9768905261308212   -0.0059667583554983
   0.0000000000000000    0.0000000000000000    4.2599849700927734
Al F
2 6
direct
   0.6347168684005737    0.6316093206405640    0.3166638910770416 Al
   0.9681096673011780    0.2990007698535919    0.8163593411445618 Al
   0.9392101168632507    0.9648190736770631    0.0661469474434853 F
   0.9401039481163025    0.6054952740669250    0.5656312108039856 F
   0.6629344224929810    0.9657152891159058    0.5657220482826233 F
   0.3021752536296844    0.3276695907115936    0.5659444332122803 F
   0.3014687597751617    0.6041594743728638    0.0664406940340996 F
   0.6619526147842407    0.3265436589717865    0.0669969543814659 F
