Rb1 B1 F4                               
   1.00000000000000     
     3.9765760916684871    0.0011890410850867    1.8615186461574071
     1.9874404870216220    4.6704784196044837    0.9683802041928404
     0.0647082987852761   -0.0029180302701260    5.1750105227558709
   Rb   B    F 
     1     1     4
Direct
  0.9179089525100839  0.6851324477906062  0.7452694212068385
  0.1711851522875867  0.1875030962303751  0.2448099055753674
  0.2840433441647303  0.4214180354322729  0.1556259432510816
  0.8247435042712650  0.2746146743623165  0.4808710062908864
  0.4280831038156425  0.9515472348654598  0.3317281056724569
  0.1476339433579106  0.1024436953576085  0.0113095482138403
 
  0.00000000E+00  0.00000000E+00  0.00000000E+00
  0.00000000E+00  0.00000000E+00  0.00000000E+00
  0.00000000E+00  0.00000000E+00  0.00000000E+00
  0.00000000E+00  0.00000000E+00  0.00000000E+00
  0.00000000E+00  0.00000000E+00  0.00000000E+00
  0.00000000E+00  0.00000000E+00  0.00000000E+00
