Cs F  H  Sc
 1.0000000000000000
     6.1738021977864896    0.0000000000000000    0.0000000000000000
    -1.0589079192376449    6.0757401919939520    0.0000000000000000
    -2.6699795334827359   -2.7816308911216385    6.8863303431468497
 Cs  F   H   Sc 
   2   9   1   2
Cartesian
  3.0355846009273337 -0.8241909042565710  4.5541880473900971
 -0.8357673513165659  2.4136864410645451  5.2743718651612754
  4.8034959128912007  1.3155791819900813  1.3931922418371869
 -0.0785874538531875  4.0776248692224462  2.2674737261091633
  3.5386575161356517  4.3186501061017069  1.3000829850661066
  1.1262111355248399  3.1032177623057096  0.6584038411887252
 -0.4673383018101944 -0.0328088482942797  3.5123140875943704
  2.5617655836332109  2.8656230999073951  6.5000760928509216
  1.7961025267291646  0.5763868343955686  1.5799249557292372
  0.5795805547214254 -0.7579709072860669  6.2352330518909831
  2.8605382543505593  2.4840939660366619  3.2635894985522120
  0.5091405646751548  3.5727364665879944  1.4613258917911178
 -0.1298238121212254 -0.2825179989198665  1.5732632341736899
  3.0015673630675854  2.2835857502400834  1.2947599699094143
