K4 Li2 F6                               
   1.00000000000000     
     6.4587824440006774    0.0185124798366293    1.9129886986057434
     1.3830311457453603    4.9851237488766040    2.3257925522777922
    -0.0252965311578426    0.0165133362183688    6.1340787672363124
   K    Li   F 
     4     2     6
Direct
  0.9195668385122798  0.0402722624809646  0.8213654988858898
  0.5269547736582189  0.7441392829119809  0.9117243002682022
  0.0647189557348701  0.3069992879653718  0.1835732587478445
  0.3813283204283244  0.4777294380671525  0.5496888597028878
  0.5420115790902533  0.0318142035314795  0.3045842177127018
  0.9023322861857291  0.7528712656774490  0.4292817645344567
  0.7315076418883305  0.0872199718992731  0.4481023147065513
  0.1462203546333138  0.7732729387569582  0.1926378265816429
  0.2999592947938917  0.0110779359385014  0.5413990880718744
  0.7143113332570664  0.6978003582185125  0.2849289758949660
  0.4935650272318723  0.2483703018286690  0.9881369040349238
  0.9538060302414434  0.5366113250803883  0.7446382107887082
 
  0.00000000E+00  0.00000000E+00  0.00000000E+00
  0.00000000E+00  0.00000000E+00  0.00000000E+00
  0.00000000E+00  0.00000000E+00  0.00000000E+00
  0.00000000E+00  0.00000000E+00  0.00000000E+00
  0.00000000E+00  0.00000000E+00  0.00000000E+00
  0.00000000E+00  0.00000000E+00  0.00000000E+00
  0.00000000E+00  0.00000000E+00  0.00000000E+00
  0.00000000E+00  0.00000000E+00  0.00000000E+00
  0.00000000E+00  0.00000000E+00  0.00000000E+00
  0.00000000E+00  0.00000000E+00  0.00000000E+00
  0.00000000E+00  0.00000000E+00  0.00000000E+00
  0.00000000E+00  0.00000000E+00  0.00000000E+00
