Na1 H1 F2                               
   1.00000000000000     
     3.2805296267585384    0.0000124824988625    1.1987819090362077
    -1.4100599365848931    2.9320422947797642   -1.2233185263240527
     0.0092071470118794   -0.0020243394434872    5.0827690750673860
   Na   H    F 
     1     1     2
Direct
  0.2002543601529768  0.9111015542389741  0.3815405574240485
  0.7002511754147653  0.4111296116954321  0.8814365721520887
  0.6184413973011775  0.4898788466256845  0.1283994262294386
  0.7833737113905332  0.3308052661130815  0.6347162715145233
 
  0.00000000E+00  0.00000000E+00  0.00000000E+00
  0.00000000E+00  0.00000000E+00  0.00000000E+00
  0.00000000E+00  0.00000000E+00  0.00000000E+00
  0.00000000E+00  0.00000000E+00  0.00000000E+00
