Cs F  H  K 
 1.0000000000000000
     5.7732049170523263    0.0000000000000000    0.0000000000000000
     0.1643437673539679    5.9856180304799649    0.0000000000000000
     3.0046236362316336    2.8128831959843237    6.8917385120287467
 Cs  F   H   K  
   2   6   3   1
Cartesian
  5.8289537229741279  5.3968721960113690  4.0153605736266496
  2.8397983352543834  2.4978076458147473  1.7492834709407410
  4.5775377808164572  2.4412251153444955  4.2313760231568347
  4.0145104464705188  5.7081159783497055  6.3737831955015505
  4.0945465731736705  5.4999817179489847  1.5639043766893828
  6.8767380695604734  2.3451695907621173  4.2241257627597992
  1.7924468574095769  5.4957923642819395  1.4962268928996905
  7.6324533809808131  4.9914458031636091  6.2873227106229317
  5.7239349024038910  2.4008286638790728  4.1969485827106290
  2.9407636575043266  5.3533697308113091  6.3425890014907571
  2.9414249522914719  5.4844193921140398  1.5446442550649799
  3.0209955381994194  8.3488824125380567  6.3301033547617003
