Na3 In1 F6                              
   1.00000000000000     
     5.0415486890147996    0.0083824487954824   -3.4061702642947687
    -3.3067766693418363    4.7114566656761179   -0.0088332613009357
     0.0340341563527787    0.0321276224945269    6.0799645747198525
   Na   In   F 
     3     1     6
Direct
  0.3134509305036283  0.7000748580338327  0.2627372933045209
  0.8839767379438063  0.9844575245101395  0.9785335146476926
  0.8948584720412396  0.4902143502916393  0.4751124372851925
  0.2983055902953070  0.1919356485947603  0.7708713087818466
  0.8287247502188709  0.8241614351829063  0.5679062392675187
  0.1430655417305883  0.3005410561894244  0.4068246151988582
  0.7719346099139469  0.5559412184897626  0.0352734695638732
  0.1346898903785023  0.3946038515157323  0.8740744404557743
  0.3991653528677497  0.0896528007816018  0.1382783906830441
  0.3997102745179666  0.9294943206859421  0.6621917093585938
 
  0.00000000E+00  0.00000000E+00  0.00000000E+00
  0.00000000E+00  0.00000000E+00  0.00000000E+00
  0.00000000E+00  0.00000000E+00  0.00000000E+00
  0.00000000E+00  0.00000000E+00  0.00000000E+00
  0.00000000E+00  0.00000000E+00  0.00000000E+00
  0.00000000E+00  0.00000000E+00  0.00000000E+00
  0.00000000E+00  0.00000000E+00  0.00000000E+00
  0.00000000E+00  0.00000000E+00  0.00000000E+00
  0.00000000E+00  0.00000000E+00  0.00000000E+00
  0.00000000E+00  0.00000000E+00  0.00000000E+00
