Na1 H1 F2
1.0
   2.9841651916503906    0.0000000000000000    0.0122285066172483
  -0.0004382592488112    2.9641916427875827    0.0022323941811919
   0.0000000000000000    0.0000000000000000    4.7375330924987793
Na H F
1 1 2
direct
   0.3324248790740967    0.0710113793611526    0.8930968642234802 Na
   0.8355391025543213    0.5716150999069214    0.3937752842903137 H
   0.8335289955139160    0.5697642564773560    0.6351346373558044 F
   0.8321857452392578    0.5697811245918274    0.1493768393993378 F
