Al F  Na Tl
 1.0000000000000000
     5.0705146834861541    0.0000000000000000    0.0000000000000000
    -0.1318353371009467    5.1238441487514992    0.0000000000000000
     0.0002803254228658   -0.0051770837046086    6.6309036012729097
 Al  F   Na  Tl 
   1   8   2   1
Cartesian
  3.4889779367232197  3.5416042680210169  3.8928463939523179
  2.2248909802471140  2.2366834088116012  3.8919239209385967
  4.4139432645839136  2.6367317076334680  5.2814382235051465
 -0.1050249567323795  5.0712655702220664  0.5747146689034111
  2.5751201214230464  4.4477963093925332  5.2782506721531073
  4.7589873550939128  4.8488428674879529  3.8929578495606596
  2.5719232307537325  4.4448120289873501  2.5011729353986398
  4.4198238618088359  2.6419844552067548  2.4997277672004086
  2.0188349773218373  2.0249500044929483  0.5728585575535019
  1.0220207361019575  0.9824601774591499  2.3750871975315540
  1.0240137933573703  0.9805480251089748  5.4099813203965716
  3.4952249703452853  3.5448396062139462  0.5758955746685663
