K2 S2 O3 F4                             
   1.00000000000000     
     5.8719532938152330   -0.2222167040243388    0.3966035413613333
    -0.0334399248102264    4.4522869607729572    1.6687844871263771
     0.4797954298376831   -0.3440889217155234    7.4867038610774586
   K    S    O    F 
     2     2     3     4
Direct
  0.8376328638352264  0.1067227093879592  0.9336354341700462
  0.4671891171482205  0.3975063283416134  0.4376293214766072
  0.3581749826609153  0.6105575132447957  0.9094310262660589
  0.9651423992889550  0.9432777656539307  0.4196677585797390
  0.5293782218061680  0.5630922243999892  0.0416174097298352
  0.1201836168438953  0.5446400613290880  0.0085132544438411
  0.9389566979104498  0.2138731134954478  0.4691864028601604
  0.3941192964747418  0.2651720253295901  0.8359976790194968
  0.2228410997793034  0.8398107587601358  0.5246150996167647
  0.6902610724629589  0.9589819399324457  0.3104906095804653
  0.8208605010261116  0.6851977141009691  0.6065663496226888
 
  0.00000000E+00  0.00000000E+00  0.00000000E+00
  0.00000000E+00  0.00000000E+00  0.00000000E+00
  0.00000000E+00  0.00000000E+00  0.00000000E+00
  0.00000000E+00  0.00000000E+00  0.00000000E+00
  0.00000000E+00  0.00000000E+00  0.00000000E+00
  0.00000000E+00  0.00000000E+00  0.00000000E+00
  0.00000000E+00  0.00000000E+00  0.00000000E+00
  0.00000000E+00  0.00000000E+00  0.00000000E+00
  0.00000000E+00  0.00000000E+00  0.00000000E+00
  0.00000000E+00  0.00000000E+00  0.00000000E+00
  0.00000000E+00  0.00000000E+00  0.00000000E+00
