Na1 H1 F2
1.0
   3.2205302715301518    0.0000000000000000   -1.1765623092651367
   1.3889340214364831    2.8903533482304389   -1.1694587469100952
   0.0000000000000000    0.0000000000000000    4.9890136718750000
Na H F
1 1 2
direct
   0.8022665381431580    0.0781549513339996    0.3700933456420898 Na
   0.3028667867183685    0.5797081589698792    0.8692619800567626 H
   0.3836610317230225    0.6606605648994445    0.1168743968009949 F
   0.2214759886264801    0.4965004026889801    0.6230605840682983 F
