Al F  Mg Rb
 1.0000000000000000
     5.2151102229289208    0.0000000000000000    0.0000000000000000
    -2.6001765043893017    4.5164446244690870    0.0000000000000000
     0.0063235581940088    0.0014524232053340    6.1221088360646299
 Al  F   Mg  Rb 
   1   6   1   1
Cartesian
  0.2014587803399556  1.1351913859578098  6.1219862276074863
 -0.3968213548938617  2.5221574570978311  5.0740397025027670
  1.7059293281315506  0.9634329015880420  5.0724377646252119
  1.9161135374431844  4.4368754052486814  5.0807620030905394
 -1.5086886385492886  4.4318489157099030  1.0458743144618572
  3.9066068232340854  0.9632204384447515  1.0479231711128829
  0.8024027197487087  2.5178711949542580  1.0467764536230841
  0.1999874393750882  4.1447185234205914  0.0031411119020488
  2.8061835695322728  2.6382512381618826  3.0599675451465980
