K2 H7 O3 F3
1.0
   4.4656643867492676    0.0000000000000000   -0.8425841331481935
  -1.1095075986537155    6.0785517239162630   -1.2788071632385249
   0.0000000000000000    0.0000000000000000    7.2163710594177246
K H O F
2 7 3 3
direct
   0.6227509975433350    0.6525351405143738    0.9424625039100646 K
   0.3948085308074951    0.0518521480262280    0.3813622295856475 K
   0.1221419721841812    0.6463348865509033    0.6589732766151427 H
   0.0662834122776985    0.2594540417194366    0.6287114620208739 H
   0.8444929718971252    0.1781117469072342    0.1018053516745567 H
   0.0428556501865387    0.8900019526481628    0.7160546183586119 H
   0.9147250056266786    0.2149949073791504    0.7968031167984008 H
   0.1815140694379807    0.5003927946090698    0.1681562215089798 H
   0.3469937443733215    0.5481794476509094    0.3842185139656066 H
   0.3445161581039429    0.6080172657966614    0.2619797885417938 O
   0.0798407346010208    0.7606280446052550    0.7637575864791869 O
   0.9379426836967469    0.1425526291131973    0.6670710444450377 O
   0.8854578733444214    0.3222552835941315    0.0134396124631167 F
   0.2976230084896088    0.4432110786437988    0.5703281164169312 F
   0.8245412707328796    0.0465379282832146    0.1748371124267578 F
