Sr1 Nd1 O1 F3                           
   1.00000000000000     
     3.4849732555150381   -0.0014233192892772   -2.0068577748692209
    -2.3147653603736713    6.7757679278673919    0.0024455649246281
    -0.0021646655627016   -0.0029452112804479    4.0188776642482011
   Sr   Nd   O    F 
     1     1     1     3
Direct
  0.2389102971092933  0.7185783300384448  0.1530042008770465
  0.2535959240588734  0.2403329818358412  0.6605642685403209
  0.9844786346183527  0.3367625500767565  0.0263313527571643
  0.4947878011084030  0.6023001361447970  0.7810162072674639
  0.4889556252748571  0.0923320171975926  0.2789240616764265
  0.0045064407723345  0.8680304482771625  0.5358773965893120
 
  0.00000000E+00  0.00000000E+00  0.00000000E+00
  0.00000000E+00  0.00000000E+00  0.00000000E+00
  0.00000000E+00  0.00000000E+00  0.00000000E+00
  0.00000000E+00  0.00000000E+00  0.00000000E+00
  0.00000000E+00  0.00000000E+00  0.00000000E+00
  0.00000000E+00  0.00000000E+00  0.00000000E+00
