Li1 Bi1 F4                              
   1.00000000000000     
     3.9024788752776365    0.0002584682357155    0.0064005427275811
    -0.0013701849186312    3.8998049167545945   -0.0008449658945020
    -0.0014947716056570   -0.0006495658566331    5.4098629929039630
   Li   Bi   F 
     1     1     4
Direct
  0.8005041675131837  0.9284005999421152  0.1631240776281982
  0.3003671138232136  0.4284729649800518  0.6633107535191524
  0.3004218625716535  0.9280740501867935  0.9158476266415294
  0.8004609053329579  0.4279623855196092  0.9161337913746243
  0.8009284063270405  0.4271368496552039  0.4107456903617443
  0.3006825663759968  0.9278463269871158  0.4107351572278719
 
  0.00000000E+00  0.00000000E+00  0.00000000E+00
  0.00000000E+00  0.00000000E+00  0.00000000E+00
  0.00000000E+00  0.00000000E+00  0.00000000E+00
  0.00000000E+00  0.00000000E+00  0.00000000E+00
  0.00000000E+00  0.00000000E+00  0.00000000E+00
  0.00000000E+00  0.00000000E+00  0.00000000E+00
