Li2 Ga2 F8
1.0
   4.5486111640930176    0.0000000000000000   -0.0370298177003855
  -0.0236548378109057    4.5462298115823678   -0.0332901552319523
   0.0000000000000000    0.0000000000000000    5.9495601654052734
Li Ga F
2 2 8
direct
   0.2338191866874695    0.1431076079607010    0.0677427724003792 Li
   0.7339419722557068    0.6431408524513245    0.2961951494216919 Li
   0.7344009280204773    0.6436858773231506    0.8146397471427916 Ga
   0.2343378961086273    0.1437547802925110    0.5479204058647156 Ga
   0.0394275672733784    0.3393477499485016    0.3226603567600250 F
   0.5325207114219666    0.4430579543113708    0.5704035758972168 F
   0.4353820979595184    0.9422649145126344    0.7928100824356079 F
   0.9361618757247925    0.8446385860443115    0.5704246163368225 F
   0.4289462864398956    0.9504730105400085    0.3236182332038879 F
   0.0330171771347523    0.3459917604923249    0.7931210398674011 F
   0.5384432673454285    0.4502780139446258    0.0405064336955547 F
   0.9277727603912354    0.8396189212799072    0.0409661270678043 F
