Sr1 Pb1 Cl1 F3                          
   1.00000000000000     
     3.9190178962857649    0.0078679405762209   -0.0053747373456489
    -0.0021460175054377    3.9215257409873341   -0.0229447106757907
     0.0092312523648049   -0.0179044664833421    7.4567576926368302
   Sr   Pb   Cl   F 
     1     1     1     3
Direct
  0.6779258526885806  0.1624803962760040  0.9327103036908450
  0.1789682253774328  0.6487041523133965  0.5182197298637190
  0.6753932829867405  0.1469423707910219  0.3337250290044362
  0.1758121563240889  0.1500942294510499  0.7152889550902596
  0.1707036125507974  0.6380506528550403  0.0080692875953830
  0.6749349127845713  0.6542101078269611  0.7154475404046002
 
  0.00000000E+00  0.00000000E+00  0.00000000E+00
  0.00000000E+00  0.00000000E+00  0.00000000E+00
  0.00000000E+00  0.00000000E+00  0.00000000E+00
  0.00000000E+00  0.00000000E+00  0.00000000E+00
  0.00000000E+00  0.00000000E+00  0.00000000E+00
  0.00000000E+00  0.00000000E+00  0.00000000E+00
