Li2 Mn1 F4                              
   1.00000000000000     
     2.7349316054861226   -0.0015994271241345    0.0096567163725239
    -0.0039469852299729    5.0594919822093605    0.2992875422092192
    -0.0236210929744384    0.1592162620988111    4.9827652513260015
   Li   Mn   F 
     2     1     4
Direct
  0.2457333961181229  0.1517576172436526  0.5628561170261324
  0.2479389123734513  0.1510378331430214  0.0623866183598435
  0.7484169221934218  0.6504393259532855  0.0614284101799759
  0.7484968380072755  0.0037934839222812  0.8248178401412776
  0.2491802410587273  0.8202980128371905  0.2851342247350147
  0.7475317609713996  0.2980467250126473  0.2994603667215020
  0.2464758313362026  0.4807068757031002  0.8366766540331342
 
  0.00000000E+00  0.00000000E+00  0.00000000E+00
  0.00000000E+00  0.00000000E+00  0.00000000E+00
  0.00000000E+00  0.00000000E+00  0.00000000E+00
  0.00000000E+00  0.00000000E+00  0.00000000E+00
  0.00000000E+00  0.00000000E+00  0.00000000E+00
  0.00000000E+00  0.00000000E+00  0.00000000E+00
  0.00000000E+00  0.00000000E+00  0.00000000E+00
