Ca1 Sb3 F11                             
   1.00000000000000     
     6.0524673840709848   -0.2309236658447892    0.8396685070172026
     3.0270334337860221    6.5048183696591142   -0.7611566393766033
    -0.0832101079993858   -0.0575587297333445    6.7621479555517707
   Ca   Sb   F 
     1     3    11
Direct
  0.5078183061351708  0.9526862084673987  0.9267027856667038
  0.8762304216117934  0.2609464551717252  0.0801382790852269
  0.9115001614300834  0.7966274727354088  0.3356946425893991
  0.3311123604499757  0.4490521453642425  0.7081099178580956
  0.8708761081000049  0.9915124322882447  0.9679778350911135
  0.7131679836812046  0.1971286089715642  0.3373156495288189
  0.1699880134325205  0.6953867440797230  0.5574242591489548
  0.6230574352253127  0.8138148727089883  0.2069950137333408
  0.1717445067969519  0.0979469700110134  0.1811589961328889
  0.4716117768337414  0.6406070961402263  0.8237196553312410
  0.6764304891204819  0.9061628305126455  0.5934936728644392
  0.4877204350111230  0.2960763007679992  0.9382539663191172
  0.0455401057319301  0.5811777482476000  0.9216505977537641
  0.9253917487634130  0.5198664710091863  0.3588491205022047
  0.1626600858305109  0.1622105540665205  0.8134875142818189
 
  0.00000000E+00  0.00000000E+00  0.00000000E+00
  0.00000000E+00  0.00000000E+00  0.00000000E+00
  0.00000000E+00  0.00000000E+00  0.00000000E+00
  0.00000000E+00  0.00000000E+00  0.00000000E+00
  0.00000000E+00  0.00000000E+00  0.00000000E+00
  0.00000000E+00  0.00000000E+00  0.00000000E+00
  0.00000000E+00  0.00000000E+00  0.00000000E+00
  0.00000000E+00  0.00000000E+00  0.00000000E+00
  0.00000000E+00  0.00000000E+00  0.00000000E+00
  0.00000000E+00  0.00000000E+00  0.00000000E+00
  0.00000000E+00  0.00000000E+00  0.00000000E+00
  0.00000000E+00  0.00000000E+00  0.00000000E+00
  0.00000000E+00  0.00000000E+00  0.00000000E+00
  0.00000000E+00  0.00000000E+00  0.00000000E+00
  0.00000000E+00  0.00000000E+00  0.00000000E+00
