Li3 Mn1 F5
1.0
   3.6579716205596924    0.0000000000000000   -1.3904726505279539
  -2.0582476768677220    5.0262436129979067    0.1802377551794047
   0.0000000000000000    0.0000000000000000    5.5457816123962402
Li Mn F
3 1 5
direct
   0.7528685331344606    0.1098799705505371    0.7272020578384399 Li
   0.9459402561187746    0.8035477399826051    0.4191316068172455 Li
   0.1366822719573975    0.3251760601997375    0.2809952795505524 Li
   0.5611909627914429    0.5683650374412537    0.8848227262496948 Mn
   0.4904501438140870    0.7636315822601318    0.5492547154426575 F
   0.0160533022135496    0.4634931385517120    0.8989623188972473 F
   0.6875446438789368    0.4421291649341583    0.2653864622116089 F
   0.8547127246856691    0.9585184454917909    0.0810399651527405 F
   0.2291519343852997    0.1720522940158844    0.6160231828689575 F
