F  H  O  S 
 1.0000000000000000
     4.4334840910024500    0.0000000000000000    0.0000000000000000
     0.5271431087586540    4.7242877793005240    0.0000000000000000
     2.5027390296008050    0.4619737968705707    5.1162321439673573
 F   H   O   S  
   1   3   3   1
Cartesian
  1.6154244074807651  1.8339436171757721  1.6997363860357384
  3.9560412631808952  4.9902762795741360  3.8310269016954006
  3.8243856107977710  3.3324854251254603  3.7908602544493575
  3.3970243413010470  4.3194966219840021  1.8599411264282208
  4.0814914816488814  1.7634821672175724  4.5022275413720658
  3.2174397200485272  4.4803799438133165  0.8274500105356495
  3.5358272204318788  4.1857793537052190  3.3763711939511114
  2.5841016173774594  1.2698769105177110  0.4660443771230215
