Cs F  Pr
 1.0000000000000000
     6.0788515567323733    0.0000000000000000    0.0000000000000000
     0.0421206401919541    6.9862938813333511    0.0000000000000000
     0.0102545605447743    0.0171738611738711    6.1537546277567836
 Cs  F   Pr 
   2   8   2
Cartesian
  0.3563393261527045  2.6503346439710369  1.6401591643979623
  3.2815474874333375  2.5257300286462163  4.7176382011406739
  2.0560369851875033  4.7794971637005075  3.0974837085857958
  3.6638773533288083  1.6039293934990186  1.6343807175802256
  4.8708313421107530  6.0821559001103074  0.1001740650257698
  6.0414956326332261  3.5765338154636401  4.7270130470347027
  4.8761442962002493  6.0803558188346418  3.1793103154937823
  2.0647352809240749  4.7729536997123265  0.1853760671517171
  1.5713987236596620  0.3860231929731635  0.0158271303924690
  1.5786380543485790  0.3979180658910134  3.2599840940186184
  3.0909518140181311  6.3937196383718122  1.6371716406369832
  0.5812677610258661  5.7679412653164475  4.7182577134343875
