Li2 Mn1 F4
1.0
   3.2856211662292480    0.0000000000000000   -0.0068020094186069
   1.6447464833166237    5.2026139895771815   -1.4775912761688224
   0.0000000000000000    0.0000000000000000    5.0851874351501465
Li Mn F
2 1 4
direct
   0.6974674463272095    0.8032646179199219    0.3780248463153840 Li
   0.0302703063935041    0.1389802098274231    0.2347941994667053 Li
   0.3650288283824921    0.4704318940639496    0.8064383268356323 Mn
   0.2138438969850540    0.7709161639213562    0.1792758405208588 F
   0.9481241703033447    0.3022416532039642    0.9622969627380373 F
   0.7781075835227966    0.6418588161468506    0.6509262323379517 F
   0.5148839950561523    0.1712792217731476    0.4340178072452545 F
