H9 N2 F3                                
   1.00000000000000     
     4.8491332930882258   -0.0204389749024863   -1.4227364179758231
     0.0255172986910212    4.5629307410159408   -0.0100815790927322
    -0.2636843336616478    0.0046881976116114    6.1124699375822171
   H    N    F 
     9     2     3
Direct
  0.5460383627565204  0.2393049707102044  0.5903857514796058
  0.9445676937878861  0.9266102714934270  0.2319898754500573
  0.2904179677631778  0.2423064311858214  0.1969644263207676
  0.4064788670749789  0.4321919719997069  0.7623159908546855
  0.0354669539399732  0.7392348763063710  0.4920299795119984
  0.6973965654919695  0.7386487330200803  0.3008264529769527
  0.7125593694096869  0.2385469335347292  0.8787780522398889
  0.4066631887081697  0.0457290437041889  0.7619139611973391
  0.9448261039725977  0.5516980298850082  0.2319827882145269
  0.9040202286070647  0.7392942370205599  0.3131502412991889
  0.5190345489721883  0.2387937352799756  0.7511198642356575
  0.0307678987177652  0.2375775956711678  0.1134737290694749
  0.2442744525614496  0.7393309881658380  0.7339143844594996
  0.5109443306702007  0.2471309581965130  0.2854835588341176
 
  0.00000000E+00  0.00000000E+00  0.00000000E+00
  0.00000000E+00  0.00000000E+00  0.00000000E+00
  0.00000000E+00  0.00000000E+00  0.00000000E+00
  0.00000000E+00  0.00000000E+00  0.00000000E+00
  0.00000000E+00  0.00000000E+00  0.00000000E+00
  0.00000000E+00  0.00000000E+00  0.00000000E+00
  0.00000000E+00  0.00000000E+00  0.00000000E+00
  0.00000000E+00  0.00000000E+00  0.00000000E+00
  0.00000000E+00  0.00000000E+00  0.00000000E+00
  0.00000000E+00  0.00000000E+00  0.00000000E+00
  0.00000000E+00  0.00000000E+00  0.00000000E+00
  0.00000000E+00  0.00000000E+00  0.00000000E+00
  0.00000000E+00  0.00000000E+00  0.00000000E+00
  0.00000000E+00  0.00000000E+00  0.00000000E+00
