Ba4 Cl5 F3                              
   1.00000000000000     
     4.3439230416695427   -0.0014044130846053   -1.1351291216314283
    -0.0479726471506636    8.0566622112545279   -0.2332353628778635
     0.0330055656855202   -0.1073134872372721    8.9851959903688883
   Ba   Cl   F 
     4     5     3
Direct
  0.2386345902902382  0.7242431954812382  0.0418620722578118
  0.6511034902400079  0.2699476089487337  0.8707197545395288
  0.8876494471627890  0.0921168383190886  0.3444370785365052
  0.0111969923613306  0.6153868758673159  0.5931311927482218
  0.8143056277864248  0.4789247137055953  0.1979927353463671
  0.2674766155744627  0.1392873814457309  0.1027925011701585
  0.4180382092735526  0.8169537536109170  0.4054234981734504
  0.4722618505726710  0.3197580991034199  0.5140674774530263
  0.0731054956197134  0.9950563138916450  0.7177142977458841
  0.5996413833483947  0.6294582111790528  0.7699514053016653
  0.1394768811013660  0.4393432899768306  0.8473209471954862
  0.7735932600701229  0.8691891134918707  0.1133682880119763
 
  0.00000000E+00  0.00000000E+00  0.00000000E+00
  0.00000000E+00  0.00000000E+00  0.00000000E+00
  0.00000000E+00  0.00000000E+00  0.00000000E+00
  0.00000000E+00  0.00000000E+00  0.00000000E+00
  0.00000000E+00  0.00000000E+00  0.00000000E+00
  0.00000000E+00  0.00000000E+00  0.00000000E+00
  0.00000000E+00  0.00000000E+00  0.00000000E+00
  0.00000000E+00  0.00000000E+00  0.00000000E+00
  0.00000000E+00  0.00000000E+00  0.00000000E+00
  0.00000000E+00  0.00000000E+00  0.00000000E+00
  0.00000000E+00  0.00000000E+00  0.00000000E+00
  0.00000000E+00  0.00000000E+00  0.00000000E+00
