Ba2 Y1 F7
1.0
   6.2599272727966300    0.0000000000000000    0.1595620512962343
  -0.0340323801936227    6.2787382967996868    0.6918529272079472
   0.0000000000000000    0.0000000000000000    5.8353562355041504
Ba Y F
2 1 7
direct
   0.0875454843044281    0.2569383680820465    0.8592715859413147 Ba
   0.5809258222579956    0.7754838466644287    0.8682727217674255 Ba
   0.5749333500862122    0.2356402128934860    0.3244860768318176 Y
   0.8044151067733766    0.4697138369083405    0.1100145950913429 F
   0.3555942177772522    0.4664289355278016    0.1123204305768013 F
   0.3620850443840027    0.0343666002154350    0.1139642894268036 F
   0.8033043146133424    0.0863336697220802    0.5904595255851746 F
   0.7956324815750123    0.0372507907450199    0.1114230975508690 F
   0.5453698635101318    0.4801474809646606    0.5802230238914490 F
   0.3505475521087646    0.0605013854801655    0.5908891558647156 F
