Na2 Ca2 F6
1.0
   3.6554298400878906    0.0000000000000000    0.0059423209168018
   0.0142791433600532    6.0452554863713530   -0.0561645030975343
   0.0000000000000000    0.0000000000000000    6.5204272270202637
Na Ca F
2 2 6
direct
   0.3744019865989685    0.6909426450729370    0.2676171362400055 Na
   0.8745028972625732    0.2001914978027344    0.4078947305679321 Na
   0.3729054629802704    0.1139341518282890    0.9093347787857056 Ca
   0.8740445375442505    0.6009917855262756    0.7505788207054138 Ca
   0.8728628158569336    0.9811787605285645    0.7147812843322755 F
   0.3717345297336578    0.7337526679039001    0.9314196705818176 F
   0.8733746409416199    0.3295179009437561    0.9992527365684509 F
   0.8751802444458008    0.5932275652885437    0.4146302640438080 F
   0.3759999573230743    0.0586382150650024    0.2488297075033188 F
   0.3737681508064270    0.3722497522830964    0.6605741977691650 F
