Cs3 Li2 F5
1.0
   5.7570424079895020    0.0000000000000000   -0.0478778332471849
  -1.5647857746642451    5.4261050605506904   -3.1258215904235840
   0.0000000000000000    0.0000000000000000    6.1661577224731445
Cs Li F
3 2 5
direct
   0.9294003248214722    0.9433279037475586    0.6662855744361877 Cs
   0.6175565123558044    0.4279838502407074    0.9103844761848450 Cs
   0.2419132441282272    0.4596617221832275    0.4235143661499023 Cs
   0.2076977640390396    0.8209577202796935    0.1066411361098289 Li
   0.6493235230445862    0.0682248920202255    0.2283928394317627 Li
   0.9292791485786438    0.9442121982574462    0.1668321937322616 F
   0.4271744787693024    0.9412425160408020    0.9404563903808594 F
   0.1300692260265350    0.4860379695892334    0.9400418996810913 F
   0.4302284419536591    0.9455996751785277    0.3942360579967499 F
   0.7294473648071289    0.4021565616130829    0.3958889544010162 F
