Rb2 Bi4 F14                             
   1.00000000000000     
     4.4468013578816672    0.0111130790548162    0.9242652066109318
    -0.0149016830915714    6.9991088289205603   -0.2663270759685517
    -0.0977694902898470    0.0170980853823340   10.9920825714461987
   Rb   Bi   F 
     2     4    14
Direct
  0.6072969577743497  0.4218537141589259  0.2452795388789007
  0.1753244166627369  0.9250595144091716  0.2463313210048907
  0.2927198174678171  0.5625652930239810  0.9187241529413810
  0.9726214445614944  0.3187982806835553  0.5821259326772124
  0.8113595855579893  0.0257095934488480  0.9097006138797314
  0.4885706948796604  0.7813340789558667  0.5736823320683923
  0.7601757593703391  0.0678826604926163  0.1080555751452712
  0.6393050234978431  0.5491494668670669  0.7363229365008926
  0.6865062187984881  0.0587847054375903  0.6762847656607019
  0.0227959162764121  0.2778404219934772  0.3838617511807062
  0.4978568208011406  0.4128238198438927  0.5314065521701481
  0.2468718851435265  0.0374348192731941  0.5284199612127706
  0.2809439988880394  0.9335177322918977  0.9589299302787571
  0.1385952434788210  0.7931849023341613  0.7558750632541146
  0.1590532705228329  0.5637860991923174  0.1238387941015102
  0.0504765875385350  0.6522805519293835  0.5243252238700176
  0.0968583838553713  0.2859151982820761  0.8151450148094053
  0.7260282172192076  0.6940196605020786  0.9687254530918867
  0.5342488663226881  0.3077124205980307  0.9634807906615648
  0.6196888848340641  0.7830365314172043  0.3687258590974391
 
  0.00000000E+00  0.00000000E+00  0.00000000E+00
  0.00000000E+00  0.00000000E+00  0.00000000E+00
  0.00000000E+00  0.00000000E+00  0.00000000E+00
  0.00000000E+00  0.00000000E+00  0.00000000E+00
  0.00000000E+00  0.00000000E+00  0.00000000E+00
  0.00000000E+00  0.00000000E+00  0.00000000E+00
  0.00000000E+00  0.00000000E+00  0.00000000E+00
  0.00000000E+00  0.00000000E+00  0.00000000E+00
  0.00000000E+00  0.00000000E+00  0.00000000E+00
  0.00000000E+00  0.00000000E+00  0.00000000E+00
  0.00000000E+00  0.00000000E+00  0.00000000E+00
  0.00000000E+00  0.00000000E+00  0.00000000E+00
  0.00000000E+00  0.00000000E+00  0.00000000E+00
  0.00000000E+00  0.00000000E+00  0.00000000E+00
  0.00000000E+00  0.00000000E+00  0.00000000E+00
  0.00000000E+00  0.00000000E+00  0.00000000E+00
  0.00000000E+00  0.00000000E+00  0.00000000E+00
  0.00000000E+00  0.00000000E+00  0.00000000E+00
  0.00000000E+00  0.00000000E+00  0.00000000E+00
  0.00000000E+00  0.00000000E+00  0.00000000E+00
