Cs3 Si1 O2 F3                           
   1.00000000000000     
     6.3817423685803334   -0.0069605553040439    0.0135351088554892
     0.0034670574136352    5.8533619403307648   -0.3121959863908745
    -0.0016991491729453    0.0145825464012611    5.8732871921406353
   Cs   Si   O    F 
     3     1     2     3
Direct
  0.1328682565776372  0.1050131567844749  0.9176410454377586
  0.6317953023599515  0.1386097749191322  0.4698938002392352
  0.6311448732747759  0.6559427040716739  0.9520503657908841
  0.1317192039858305  0.6482741357953798  0.4617398643025902
  0.3521189421467308  0.7388342771005840  0.5525208138976652
  0.9165193439112382  0.7468535767366409  0.5601409681959395
  0.6258940804511082  0.1610680875361393  0.9760009777731237
  0.1280834017057738  0.3592371276381430  0.4671442623504918
  0.1278510554544314  0.6541524562632696  0.1734365017132396
 
  0.00000000E+00  0.00000000E+00  0.00000000E+00
  0.00000000E+00  0.00000000E+00  0.00000000E+00
  0.00000000E+00  0.00000000E+00  0.00000000E+00
  0.00000000E+00  0.00000000E+00  0.00000000E+00
  0.00000000E+00  0.00000000E+00  0.00000000E+00
  0.00000000E+00  0.00000000E+00  0.00000000E+00
  0.00000000E+00  0.00000000E+00  0.00000000E+00
  0.00000000E+00  0.00000000E+00  0.00000000E+00
  0.00000000E+00  0.00000000E+00  0.00000000E+00
