Na1 Li1 Si1 F6                          
   1.00000000000000     
     4.5766054431170708   -0.0070628016209837    2.6651350392851052
     1.5268608924536933    4.3132182216133002    2.6726345183288287
    -0.0117065887210033   -0.0095243060419575    5.2973199321886018
   Na   Li   Si   F 
     1     1     1     6
Direct
  0.2567316380872043  0.7088756256935675  0.7379130480250690
  0.5072779548147818  0.9591994177765422  0.9883266615745293
  0.0072944012530911  0.4591759588457157  0.4883716596846617
  0.7783766498273234  0.6882842790167897  0.2590246001830658
  0.2363490377064736  0.6879303852144866  0.2587034362473775
  0.7779546000788392  0.6882404731429761  0.7171132184698991
  0.7785562168681734  0.2299060786653448  0.7177178900919950
  0.2367054535179527  0.2301158729440863  0.2594783909490639
  0.2366282262743634  0.2293871366381894  0.7172014213124245
 
  0.00000000E+00  0.00000000E+00  0.00000000E+00
  0.00000000E+00  0.00000000E+00  0.00000000E+00
  0.00000000E+00  0.00000000E+00  0.00000000E+00
  0.00000000E+00  0.00000000E+00  0.00000000E+00
  0.00000000E+00  0.00000000E+00  0.00000000E+00
  0.00000000E+00  0.00000000E+00  0.00000000E+00
  0.00000000E+00  0.00000000E+00  0.00000000E+00
  0.00000000E+00  0.00000000E+00  0.00000000E+00
  0.00000000E+00  0.00000000E+00  0.00000000E+00
