Bi1 Pb2 F7                              
   1.00000000000000     
     4.2088457820499130    0.0434832921399208   -0.0105610378204236
    -2.0548637097813298    3.6626643737190174   -0.0004783670390678
    -0.0315752586078267    0.0349004652731693   10.5924300915698684
   Bi   Pb   F 
     1     2     7
Direct
  0.9242271772697908  0.7854339918189508  0.4677728203275359
  0.3168136151381281  0.3991369751137740  0.7860117096106258
  0.6613815655697644  0.0532529493689762  0.1136738053255274
  0.9988411334661559  0.7158062934705716  0.6905639357797764
  0.3234361190888385  0.3885658315076583  0.4726968919040410
  0.3177344151004947  0.3948557093566392  0.0172348627417813
  0.6823285133802945  0.0329500034280276  0.5827051027190979
  0.9905281555043821  0.7225113857758974  0.1939026520674028
  0.6752227197166764  0.0385909944799324  0.3426311415969425
  0.6652000903183161  0.0539015476413474  0.8634489503630781
 
  0.00000000E+00  0.00000000E+00  0.00000000E+00
  0.00000000E+00  0.00000000E+00  0.00000000E+00
  0.00000000E+00  0.00000000E+00  0.00000000E+00
  0.00000000E+00  0.00000000E+00  0.00000000E+00
  0.00000000E+00  0.00000000E+00  0.00000000E+00
  0.00000000E+00  0.00000000E+00  0.00000000E+00
  0.00000000E+00  0.00000000E+00  0.00000000E+00
  0.00000000E+00  0.00000000E+00  0.00000000E+00
  0.00000000E+00  0.00000000E+00  0.00000000E+00
  0.00000000E+00  0.00000000E+00  0.00000000E+00
