Li4 Mn2 F8                              
   1.00000000000000     
     4.9292717105105375    0.0011809320275020    0.0011777414127702
     0.0017282783756029    4.8032555829552193    0.0026199803676982
     0.0029193226376912    0.0022187625734974    5.5814264785398038
   Li   Mn   F 
     4     2     8
Direct
  0.9139003902647559  0.3070473515376278  0.0399545056417873
  0.9134155901397630  0.8074727485588195  0.5395174751457494
  0.9143717049170611  0.3072228864508534  0.5079885913598952
  0.9141710382037322  0.8072235464346259  0.0076836876547355
  0.4138891048268051  0.8079885154798347  0.2747049475455816
  0.4136863623789218  0.3081217166707327  0.7745628137552534
  0.0654367135090210  0.5410482652512891  0.7736792146861500
  0.2505610533227808  0.0580116952826414  0.5247363038877294
  0.5762674950952387  0.5583679879295056  0.0239707454043085
  0.5763788645802186  0.5577287923347762  0.5237899916285738
  0.7618156503661881  0.0762552355546175  0.7747633925189720
  0.0652803389139814  0.5759384692310900  0.2735564680517376
  0.7616731077503710  0.0409637161672593  0.2748123849710832
  0.2505145360690483  0.0581191480000262  0.0246429408075108
 
  0.00000000E+00  0.00000000E+00  0.00000000E+00
  0.00000000E+00  0.00000000E+00  0.00000000E+00
  0.00000000E+00  0.00000000E+00  0.00000000E+00
  0.00000000E+00  0.00000000E+00  0.00000000E+00
  0.00000000E+00  0.00000000E+00  0.00000000E+00
  0.00000000E+00  0.00000000E+00  0.00000000E+00
  0.00000000E+00  0.00000000E+00  0.00000000E+00
  0.00000000E+00  0.00000000E+00  0.00000000E+00
  0.00000000E+00  0.00000000E+00  0.00000000E+00
  0.00000000E+00  0.00000000E+00  0.00000000E+00
  0.00000000E+00  0.00000000E+00  0.00000000E+00
  0.00000000E+00  0.00000000E+00  0.00000000E+00
  0.00000000E+00  0.00000000E+00  0.00000000E+00
  0.00000000E+00  0.00000000E+00  0.00000000E+00
