Bi1 F3                                  
   1.00000000000000     
     3.5399724352013715   -0.0003070020675476   -2.0385069869717540
     1.1669193753691391    3.3363184339657610   -2.0499047016412830
     0.0003312818218119    0.0000853626236557    4.0934552281324237
   Bi   F 
     1     3
Direct
  0.0465910616375228  0.0770390728497550  0.6387512540449319
  0.7958606498752337  0.8272441520494216  0.8879157121531764
  0.2948351493537389  0.3262639526361023  0.3886445953485781
  0.5455168891716515  0.5760724740803408  0.1380211397787301
 
  0.00000000E+00  0.00000000E+00  0.00000000E+00
  0.00000000E+00  0.00000000E+00  0.00000000E+00
  0.00000000E+00  0.00000000E+00  0.00000000E+00
  0.00000000E+00  0.00000000E+00  0.00000000E+00
