F  Na Rb Te
 1.0000000000000000
     6.9595308113024004    0.0000000000000000    0.0000000000000000
    -2.0341593257298838    6.5649275082085641    0.0000000000000000
     0.0330398405839490    0.0342999664386103    8.7536489058395919
 F   Na  Rb  Te 
  13   3   2   2
Cartesian
  0.3407605849386139  1.0156026782877368  2.7442669931274879
 -0.2240555899843829  5.6358921641707358  8.0973303931997229
 -0.2602944417448743  5.5875568233297832  1.9473585339383030
  0.1546401199493621  2.4311850165377655  0.6454834875798706
  1.9260119944900218  4.0498152327085251  3.5835170379286394
  0.3025806811588229  1.0303827787801401  7.3157815803846642
  3.9052395488482348  5.7252315832244598  5.0316585636697972
  2.7629436757082892  1.2733530060290068  0.6644722226517025
  4.8988171948741730  3.0963783543229018  3.5858725150224209
  4.9119807067537238  3.0766259774062532  6.4765790155736624
  1.8741268678810212  4.0610724305735673  6.4479631907407002
  3.9957245829787875  6.1149045168959582  0.6667837416227341
  2.8359916129675136  1.4589650564220955  5.0297640598869826
 -0.0586908390383765  3.4612508244556310  7.4222489363203037
 -0.0428036994183036  3.4375803318481450  2.6344173400912987
  0.8141258338579421  0.4597584698718892  5.0330652235977702
  4.3643951237482970  0.2899987090051788  7.2393236652566211
  4.3498370398821722  0.2710952018949431  2.8291173878332159
  3.4122945986717363  3.5831614815084345  5.0341984822637782
  0.9000923108388146  0.4318301767759315  0.6543445059614587
