Li3 P3 O9                               
   1.00000000000000     
     4.9249622175966712    0.0411690016825849    0.5446419606570588
     0.9910139439982928    4.5104788153707025   -2.4726291962138807
     0.1277067959850386   -0.0305332291825763    7.7800619744507173
   Li   P    O 
     3     3     9
Direct
  0.2901431731562236  0.6302430625118649  0.1927723158526214
  0.2527868751699065  0.0271495656122742  0.5899468251986804
  0.3067651626091870  0.9787319226030285  0.9198971259322484
  0.8207139639989751  0.6316149786967264  0.5480713702810832
  0.8312273554586768  0.5310700360865658  0.8941064333281964
  0.6274436553678842  0.1011868140312269  0.2409428096753094
  0.8134603017459466  0.3034524381823638  0.3757127318613827
  0.4581031161397655  0.9841172047440391  0.3490477147816975
  0.9653122502521755  0.5460352968972073  0.6969869585271772
  0.5312600777554440  0.8175911643639667  0.6557477177281483
  0.0210452707383899  0.2670498091188346  0.8781204163046493
  0.8956906806898440  0.8300377005541500  0.0754049828525234
  0.0258234293775520  0.7418652377471358  0.4574836754029761
  0.5196878619574203  0.5755214919230823  0.9235679697179292
  0.4790759193154437  0.2397910797894632  0.1380627324740479
 
  0.00000000E+00  0.00000000E+00  0.00000000E+00
  0.00000000E+00  0.00000000E+00  0.00000000E+00
  0.00000000E+00  0.00000000E+00  0.00000000E+00
  0.00000000E+00  0.00000000E+00  0.00000000E+00
  0.00000000E+00  0.00000000E+00  0.00000000E+00
  0.00000000E+00  0.00000000E+00  0.00000000E+00
  0.00000000E+00  0.00000000E+00  0.00000000E+00
  0.00000000E+00  0.00000000E+00  0.00000000E+00
  0.00000000E+00  0.00000000E+00  0.00000000E+00
  0.00000000E+00  0.00000000E+00  0.00000000E+00
  0.00000000E+00  0.00000000E+00  0.00000000E+00
  0.00000000E+00  0.00000000E+00  0.00000000E+00
  0.00000000E+00  0.00000000E+00  0.00000000E+00
  0.00000000E+00  0.00000000E+00  0.00000000E+00
  0.00000000E+00  0.00000000E+00  0.00000000E+00
