Ba1 Nd2 Zr1 F12                         
   1.00000000000000     
     5.9720206950967958    0.0693699149651803   -0.2420452228795256
    -0.5332105987393835    6.1402184146267587    0.0317289741776570
    -0.2198029223394849    0.1082287848635592    7.4422527982945237
   Ba   Nd   Zr   F 
     1     2     1    12
Direct
  0.0096981949940139  0.0596535653324062  0.3907268197996239
  0.3302630261243316  0.2612725492125328  0.9136142830077831
  0.8451751708534955  0.7757126011862200  0.8806886805146850
  0.5386573110315419  0.5272472450322200  0.3740607908993024
  0.6146982158299091  0.2969881492627481  0.1819991968474679
  0.4996178859723484  0.5989925746786630  0.8879432567395135
  0.3573721188195279  0.3586402141386051  0.5685909555479185
  0.7313497915206676  0.7517647087660593  0.5656348477474515
  0.1126205181024387 -0.0006335360051572  0.7278895876580472
  0.3481531426829563  0.7828040957023870  0.3835650974365792
  0.7437733854301808  0.7265422479912285  0.2042880231348355
  0.1062741964608967 -0.0069238639634276  0.0665270013230519
  0.6240563648151910  0.0642371172391765  0.8570672186554830
  0.7848894901833354  0.3629037642948116  0.5015375817658759
  0.0197503856154298  0.4628725665178027  0.8677512792733828
  0.2435188072268930  0.4117647927589761  0.2165694399054795
 
  0.00000000E+00  0.00000000E+00  0.00000000E+00
  0.00000000E+00  0.00000000E+00  0.00000000E+00
  0.00000000E+00  0.00000000E+00  0.00000000E+00
  0.00000000E+00  0.00000000E+00  0.00000000E+00
  0.00000000E+00  0.00000000E+00  0.00000000E+00
  0.00000000E+00  0.00000000E+00  0.00000000E+00
  0.00000000E+00  0.00000000E+00  0.00000000E+00
  0.00000000E+00  0.00000000E+00  0.00000000E+00
  0.00000000E+00  0.00000000E+00  0.00000000E+00
  0.00000000E+00  0.00000000E+00  0.00000000E+00
  0.00000000E+00  0.00000000E+00  0.00000000E+00
  0.00000000E+00  0.00000000E+00  0.00000000E+00
  0.00000000E+00  0.00000000E+00  0.00000000E+00
  0.00000000E+00  0.00000000E+00  0.00000000E+00
  0.00000000E+00  0.00000000E+00  0.00000000E+00
  0.00000000E+00  0.00000000E+00  0.00000000E+00
