Bi F  H 
 1.0000000000000000
     4.2963126019590465    0.0000000000000000    0.0000000000000000
    -0.0321183254164903    4.5393112390461585    0.0000000000000000
    -2.1233146612899572    1.2742853052186378    7.8695223545581934
 Bi  F   H  
   2   7   1
Cartesian
  0.4569371880730315  1.7660749030026119  0.5067167557713255
  2.6181055697813775  1.4224656061540897  4.0594049825921532
  0.4711585248207690  1.7065281186235588  2.9774599687829935
  2.6035418645624739  3.5857588144241377  3.7314027574765647
  0.4735755479449113  3.8745670697260715  7.2229999539350906
  0.4494054134667055  5.0895244400737143  5.2653082704008813
  0.4478826069703245  4.0489336524474062  0.8300937552912363
  2.6118429149268914  1.4233954411075267  1.6189690901874789
 -1.6747301067276044  2.2283224447376839  6.2092105430533291
  0.4567941528948510  4.4884477772161935  6.2401427103253804
