Cs1 Rb2 Tb1 F7                          
   1.00000000000000     
     6.6355832283928891   -0.0059112990911799    0.0891810259064119
    -3.4200212503268461    5.7717991572582772   -3.3483872608508660
     0.2747971274572786   -0.0435125342955845    6.6414944847594617
   Cs   Rb   Tb   F 
     1     2     1     7
Direct
  0.9937299913403452  0.0353496984722657  0.8724929476142528
  0.7510244638986251  0.5344028672240847  0.1303232981831869
  0.2536227278622719  0.5329669465802748  0.6291049945890627
  0.5303335880740607  0.0342864360283337  0.4088623983975651
  0.6002139551266049  0.7990667263186890  0.4794607415259571
  0.1824734924932858  0.7889135086121212  0.4370287526663292
  0.8366313517149114  0.2712652382948034  0.7134259210411186
  0.4209506346568911  0.2717602877501067  0.6881290889536090
  0.8045262927472450  0.2766678732729054  0.3044306501413899
  0.2969490268366742  0.0387891254872847  0.1791808141014642
  0.5680930967843855  0.7944646302436227  0.0601715143213658
 
  0.00000000E+00  0.00000000E+00  0.00000000E+00
  0.00000000E+00  0.00000000E+00  0.00000000E+00
  0.00000000E+00  0.00000000E+00  0.00000000E+00
  0.00000000E+00  0.00000000E+00  0.00000000E+00
  0.00000000E+00  0.00000000E+00  0.00000000E+00
  0.00000000E+00  0.00000000E+00  0.00000000E+00
  0.00000000E+00  0.00000000E+00  0.00000000E+00
  0.00000000E+00  0.00000000E+00  0.00000000E+00
  0.00000000E+00  0.00000000E+00  0.00000000E+00
  0.00000000E+00  0.00000000E+00  0.00000000E+00
  0.00000000E+00  0.00000000E+00  0.00000000E+00
