Na2 Li1 Al1 H1 F7
1.0
   5.6729569435119629    0.0000000000000000    0.3332880735397346
   0.6276374607192922    4.6702465356340621    0.9706771373748785
   0.0000000000000000    0.0000000000000000    5.2612338066101074
Na Li Al H F
2 1 1 1 7
direct
   0.0296740252524614    0.9705432057380676    0.7348405718803406 Na
   0.1313603222370147    0.5177983641624451    0.2837875485420227 Na
   0.5143808126449585    0.9012758135795593    0.2088155001401901 Li
   0.6408134698867798    0.5723521113395691    0.8083391189575195 Al
   0.5587361454963684    0.2072861939668655    0.5435640215873718 H
   0.7949756383895873    0.6971337795257568    0.0441257096827030 F
   0.4925564825534820    0.4556117653846741    0.5308941006660461 F
   0.6246312856674194    0.2344990670680999    0.0082246819511056 F
   0.6476082801818847    0.9384343028068541    0.5649789571762085 F
   0.3617800772190094    0.7230862975120544    0.9355282187461853 F
   0.9284040927886962    0.4641825556755066    0.6623180508613586 F
   0.1931960135698318    0.0182011742144823    0.3332744836807251 F
