Rb2 Li2 F4                              
   1.00000000000000     
     3.4823553612099682    0.0068669396685995   -0.0082876762656058
     1.7315768698534288    6.1545814454808303   -0.0088287924256077
     0.0116785013380994    0.0065624431587500    5.9696977876546287
   Rb   Li   F 
     2     2     4
Direct
  0.3913194942694693  0.7934855079237433  0.6224985045895733
  0.1175433661752635  0.3423319828357049  0.1222454643969597
  0.8450030094900521  0.8842381909037498  0.1223006668822300
  0.6639981032478889  0.2510165055257268  0.6213295462807081
  0.7534649587315211  0.0680470477664718  0.8725187009622422
  0.0830204237116452  0.4119750839470485  0.6223470848505228
  0.7536428090375303  0.0676971781825141  0.3720933381872166
  0.4261865244588295  0.7234611105586450  0.1225523871622385
 
  0.00000000E+00  0.00000000E+00  0.00000000E+00
  0.00000000E+00  0.00000000E+00  0.00000000E+00
  0.00000000E+00  0.00000000E+00  0.00000000E+00
  0.00000000E+00  0.00000000E+00  0.00000000E+00
  0.00000000E+00  0.00000000E+00  0.00000000E+00
  0.00000000E+00  0.00000000E+00  0.00000000E+00
  0.00000000E+00  0.00000000E+00  0.00000000E+00
  0.00000000E+00  0.00000000E+00  0.00000000E+00
