Cs2 Fe1 F5
1.0
   5.4351043701171875    0.0000000000000000   -3.0485448837280273
  -0.1185373410967259    4.9232481792165821    0.0335329808294774
   0.0000000000000000    0.0000000000000000    6.2253308296203613
Cs Fe F
2 1 5
direct
   0.8789750933647156    0.3468330502510071    0.6246183514595031 Cs
   0.2409308254718781    0.9298650026321411    0.3050372898578644 Cs
   0.5208754539489746    0.6625838279724121    0.9438897967338562 Fe
   0.2410319298505783    0.8718593120574951    0.8065049052238464 F
   0.3992654979228973    0.4258266985416412    0.1072594970464706 F
   0.7226062417030334    0.8447210788726808    0.8293980956077576 F
   0.4006735384464264    0.4256632924079896    0.6630944609642029 F
   0.7228516340255737    0.8427177667617799    0.2605026662349701 F
