K1 Rb1 Na1 In1 F6
1.0
   5.3806276321411133    0.0000000000000000    3.1067175865173340
   1.7930188445373016    5.0721943311295661    3.1077947616577148
   0.0000000000000000    0.0000000000000000    6.2132878303527832
K Rb Na In F
1 1 1 1 6
direct
   0.5360941290855408    0.1423107534646988    0.5038007497787476 K
   0.0361926704645157    0.6420739889144897    0.0043127536773682 Rb
   0.2863470613956451    0.8923979401588440    0.2536100149154663 Na
   0.7861726284027100    0.3919099569320679    0.7543389201164246 In
   0.5466300249099731    0.6313659548759460    0.5146955251693727 F
   0.0252139084041119    0.1524646282196045    0.9937680363655090 F
   0.0259421039372683    0.6318132877349854    0.5143993496894836 F
   0.5465390086174011    0.6315702199935913    0.9937035441398621 F
   0.5467163324356079    0.1528400480747223    0.9931442737579346 F
   0.0256495550274849    0.1521980762481689    0.5146079063415527 F
