Ba2 Cl3 F1
1.0
   4.6601810455322266    0.0000000000000000    0.0296497549861677
   0.0543149185560183    4.6705850142832483    0.0266252961009738
   0.0000000000000000    0.0000000000000000    7.7515001296997070
Ba Cl F
2 3 1
direct
   0.9225159883499146    0.2572855651378632    0.4913608133792878 Ba
   0.4224679172039032    0.7560566067695618    0.9290085434913635 Ba
   0.9235703349113464    0.2563651204109192    0.0708913654088974 Cl
   0.4216736555099487    0.2555925250053406    0.7099329233169556 Cl
   0.4229046106338501    0.7578973174095154    0.3504463434219360 Cl
   0.9223935008049011    0.7575504779815674    0.7102010846138000 F
