Na2 Li1 Sc1 F6
1.0
   3.5618844032287598    0.0000000000000000    0.0032260296866301
   0.0255986269706661    5.7955934721736169   -1.8658016920089722
   0.0000000000000000    0.0000000000000000    6.5216050148010254
Na Li Sc F
2 1 1 6
direct
   0.9039788246154784    0.8105407357215881    0.6499438285827637 Na
   0.4030863046646118    0.3104348480701447    0.6555783152580261 Na
   0.9029860496520995    0.3140069544315338    0.1458482444286346 Li
   0.4037424027919769    0.8013182878494263    0.1447422802448273 Sc
   0.9045388102531432    0.1969830095767975    0.8308909535408020 F
   0.4030954539775848    0.4758925735950470    0.1343502849340439 F
   0.4031098783016204    0.7092933654785156    0.8256078362464905 F
   0.9028137326240538    0.4147778153419495    0.4629014730453491 F
   0.4030737578868865    0.9149640798568726    0.4632346630096436 F
   0.9038050174713134    0.9625442028045654    0.1403443813323974 F
