Hf1 Bi1 F8
1.0
   5.4159293174743652    0.0000000000000000    1.5471751689910891
   1.1183616410830828    5.2849279765433836    1.5458189249038703
   0.0000000000000000    0.0000000000000000    5.8515200614929199
Hf Bi F
1 1 8
direct
   0.7756581902503967    0.3384354710578918    0.2992271184921265 Hf
   0.2742570340633393    0.8381520509719849    0.7987426519393921 Bi
   0.0608524829149246    0.6221684217453003    0.6624233722686768 F
   0.5480400323867798    0.5319943428039551    0.0681377276778221 F
   0.0080727878957987    0.5792592167854309    0.1495689004659652 F
   0.5401257276535034    0.0997638478875160    0.4471848905086517 F
   0.9637184143066406    0.1193961799144745    0.0591405555605888 F
   0.5845783352851868    0.5589426755905151    0.5374623537063599 F
   0.0009417533874512    0.1463895738124847    0.5290016531944275 F
   0.4876526594161987    0.0554720945656300    0.9354557991027832 F
