K1 Sb2 F7
1.0
   4.7185387611389169    0.0000000000000000    0.9674164652824403
  -0.9442018421873822    6.1525542822234396   -1.7805463075637815
   0.0000000000000000    0.0000000000000000    6.4735736846923828
K Sb F
1 2 7
direct
   0.3197171986103058    0.4142444729804993    0.9380878806114198 K
   0.7480188608169556    0.0733692944049835    0.2785052061080933 Sb
   0.0333399772644043    0.7432183027267456    0.6083806753158569 Sb
   0.8802197575569153    0.5481884479522705    0.8032552003860475 F
   0.9846800565719604    0.9921587705612183    0.9052690863609315 F
   0.4627092778682709    0.7953391671180725    0.2099780142307282 F
   0.5283575654029846    0.2040038704872131    0.1484400629997253 F
   0.4614233374595642    0.1436036974191666    0.5555650591850281 F
   0.4135620892047882    0.6999502778053284    0.6557258367538453 F
   0.9902615547180176    0.4496326446533203    0.3583765327930450 F
