Na2 Mg2 F6
1.0
   5.1347608566284180    0.0000000000000000   -1.3559600114822377
  -2.2102152801880228    4.6148544631649484   -1.3723732233047481
   0.0000000000000000    0.0000000000000000    5.4139513969421387
Na Mg F
2 2 6
direct
   0.4753726422786713    0.3784084320068360    0.5624973177909851 Na
   0.9065377116203308    0.9496288895606996    0.0628642290830612 Na
   0.2865961194038391    0.5693655014038086    0.0626864954829216 Mg
   0.0963133424520493    0.7594054341316223    0.5631340742111206 Mg
   0.2864544093608857    0.9231993556022645    0.3289920687675476 F
   0.6910722255706787    0.6643919348716736    0.3127923905849457 F
   0.9343390464782715    0.5677253007888794    0.7968471646308899 F
   0.0960705801844597    0.4064711928367615    0.2961977422237396 F
   0.4491808116436005    0.7593345046043396    0.8282223343849182 F
   0.1911254972219467    0.1636057049036026    0.8133313059806824 F
