Li4 Mn4 F12                             
   1.00000000000000     
     5.7102440906183780   -0.0180315554126743   -0.0131211205475256
     2.8566189353762468    5.3195455235015183    0.0049261690455780
    -0.0038760587265601   -0.1600473300784530    7.1464611659420587
   Li   Mn   F 
     4     4    12
Direct
  0.5335527560375397  0.4131183289084566  0.7868922544887130
  0.1699427142653818  0.1383751106774960  0.6289832190716282
  0.2992681077457026  0.8849437007916050  0.9880615294384666
  0.6603485387002023  0.1624900382029979  0.1476503286532889
  0.8445163432689909  0.7905020281247199  0.7390517769464222
  0.1695649101377399  0.6497785219320520  0.3876011207285127
 -0.0141085913335519  0.5104599304070635  0.0360212446414373
  0.6598039459399001  0.6511250871467315  0.3888030409388732
  0.2994899821514486  0.3715368898016194  0.1980546776516287
  0.8277942024865235  0.8242514463406357  0.2270400251520521
  0.0193589856978157  0.9285573973507685  0.5761770727854922
  0.5040916078522896  0.4704528953894083  0.5317650938923281
  0.6468257306419409  0.6500325099863744  0.8877170337169519
  0.5293304898105731  0.9291686047202015  0.5784443065297451
  0.3257369795023928  0.8296174327437583  0.2441164524326463
  0.1409122440782486  0.1978088797527897  0.8847676662896623
  0.0012599003216658  0.4763164249180710  0.5490807599132929
  0.6903217551058426  0.1021553344474459  0.8913340726382366
  0.1847451539817831  0.6499542019079756  0.8866480579306633
  0.8088181897482766  0.3747011472374127  0.1984516812600557
 
  0.00000000E+00  0.00000000E+00  0.00000000E+00
  0.00000000E+00  0.00000000E+00  0.00000000E+00
  0.00000000E+00  0.00000000E+00  0.00000000E+00
  0.00000000E+00  0.00000000E+00  0.00000000E+00
  0.00000000E+00  0.00000000E+00  0.00000000E+00
  0.00000000E+00  0.00000000E+00  0.00000000E+00
  0.00000000E+00  0.00000000E+00  0.00000000E+00
  0.00000000E+00  0.00000000E+00  0.00000000E+00
  0.00000000E+00  0.00000000E+00  0.00000000E+00
  0.00000000E+00  0.00000000E+00  0.00000000E+00
  0.00000000E+00  0.00000000E+00  0.00000000E+00
  0.00000000E+00  0.00000000E+00  0.00000000E+00
  0.00000000E+00  0.00000000E+00  0.00000000E+00
  0.00000000E+00  0.00000000E+00  0.00000000E+00
  0.00000000E+00  0.00000000E+00  0.00000000E+00
  0.00000000E+00  0.00000000E+00  0.00000000E+00
  0.00000000E+00  0.00000000E+00  0.00000000E+00
  0.00000000E+00  0.00000000E+00  0.00000000E+00
  0.00000000E+00  0.00000000E+00  0.00000000E+00
  0.00000000E+00  0.00000000E+00  0.00000000E+00
