Sr3 Ca1 F8
1.0
   3.8524854183197017    0.0000000000000000   -0.0054602194577455
  -0.0070312280276292    6.3202527989627075   -0.1013743728399268
   0.0000000000000000    0.0000000000000000    7.4634962081909180
Sr Ca F
3 1 8
direct
   0.3298835158348083    0.5405047535896301    0.0791801512241364 Sr
   0.8297246098518372    0.5508605241775513    0.5858318805694580 Sr
   0.8303244113922119    0.0408223830163479    0.3024954199790955 Sr
   0.3298339247703552    0.0518407747149467    0.7932441234588623 Ca
   0.3300580382347107    0.1388062685728073    0.1019508615136147 F
   0.8299174904823303    0.4301007688045502    0.2691812217235565 F
   0.3299818336963654    0.2712972164154053    0.5349350571632385 F
   0.3298267424106598    0.7726945877075195    0.3649937212467194 F
   0.3293767273426056    0.6739988923072814    0.7668237090110779 F
   0.8293421864509583    0.3118508458137512    0.8538259267807007 F
   0.8296791315078735    0.9508517384529114    0.6307887434959412 F
   0.8298264145851135    0.8011285066604613    0.0362490005791187 F
