Na1 Ni2 F5                              
   1.00000000000000     
     3.8888032380903237   -0.0038821487581874   -0.0067106167447000
     0.0059686600604236    3.7901577313857038    1.2247919564278107
     0.0014340380549873   -0.0182401180166185    6.5032016127310337
   Na   Ni   F 
     1     2     5
Direct
  0.1938266400520335  0.2321389696530128  0.0439125350390841
  0.6936263788019037  0.8923776025997917  0.7269806627795959
  0.6952642418015846  0.5740338794603504  0.3604967676149217
  0.6945297212884458  0.7334855119691627  0.0438153038206365
  0.6935946792997678  0.4020786689491010  0.7074298597495480
  0.1936197487814939  0.8778328890581892  0.7561387181772217
  0.1955148911162118  0.5868029747371901  0.3319889673528123
  0.6953595632832643  0.0646393197083699  0.3796484999834395
 
  0.00000000E+00  0.00000000E+00  0.00000000E+00
  0.00000000E+00  0.00000000E+00  0.00000000E+00
  0.00000000E+00  0.00000000E+00  0.00000000E+00
  0.00000000E+00  0.00000000E+00  0.00000000E+00
  0.00000000E+00  0.00000000E+00  0.00000000E+00
  0.00000000E+00  0.00000000E+00  0.00000000E+00
  0.00000000E+00  0.00000000E+00  0.00000000E+00
  0.00000000E+00  0.00000000E+00  0.00000000E+00
