Mn1 Ni1 F4
1.0
   3.2423067092895508    0.0000000000000000    0.0011222923640163
  -0.0010380143919672    4.7976073095821636   -0.0089284526184196
   0.0000000000000000    0.0000000000000000    4.8005304336547852
Mn Ni F
1 1 4
direct
   0.6109461784362793    0.7690306901931763    0.0759252533316612 Mn
   0.1105639189481735    0.2696535289287567    0.5755035281181335 Ni
   0.1106134951114655    0.9684399366378783    0.2767730951309204 F
   0.6104145050048828    0.0790737569332123    0.7667474150657654 F
   0.6105558276176453    0.4595069587230682    0.3836261332035065 F
   0.1108330562710762    0.5691989064216614    0.8752875328063966 F
