Li4 Fe1 F7
1.0
   4.9415941238403320    0.0000000000000000   -1.0227676630020137
  -1.0326777976359485    5.0311651493158553   -0.5851378440856926
   0.0000000000000000    0.0000000000000000    5.1527357101440430
Li Fe F
4 1 7
direct
   0.0484360605478287    0.1091091111302376    0.5719757080078125 Li
   0.7834814786911011    0.9671037197113037    0.0036698579788208 Li
   0.4833918511867523    0.8471940755844116    0.4413034915924072 Li
   0.6961858272552490    0.4670644998550415    0.7246256470680237 Li
   0.3618920743465424    0.3012105822563171    0.1380557268857956 Fe
   0.3149186968803406    0.4813363850116730    0.4682977795600891 F
   0.0132119022309780    0.3232498764991760    0.9112557768821716 F
   0.1587863713502884    0.9809295535087584    0.2429753392934799 F
   0.4406637251377106    0.1157228574156761    0.8126965761184692 F
   0.8175500035285950    0.8114715218544005    0.6641075611114502 F
   0.6899420022964478    0.1914391070604324    0.3418220281600952 F
   0.5653127431869507    0.6292444467544556    0.0730955824255943 F
