F  Mg Zn
 1.0000000000000000
     5.2324378993770493    0.0000000000000000    0.0000000000000000
     2.6184653896531289    6.3948931249704337    0.0000000000000000
     2.6145102624242131   -0.0295411255750934    6.3932880020725378
 F   Mg  Zn 
  12   1   5
Cartesian
  7.1606741033413028  3.2452578492207462  3.6802457884283002
  6.2774924851109137  5.8846768962927785  4.1518389276149730
  6.2594982936262831  2.7061887865268623  0.9175317161671050
  1.9209197393999318  0.0725649061170983  0.4600677825780027
  7.1756991261865695  1.1462608455208367  5.7727191088144956
  6.3205169634462619  3.7349433702899053  6.2540432428468522
  3.6703651132392854  1.6354674698356357  2.0159249996972135
  7.1652787605395014  5.4050337489312090  1.5196782730345209
  6.2785583795020008  0.5664476265375478  3.0742996812453454
  8.8927833278378863  4.7746291451168918  5.2255850065858711
  4.5514618137920921  4.3322782121982844  2.5957859359577773
  4.5046951502771968  2.2102547838706896  4.7118185070229970
  8.0228611812164150  2.9626752341499736  5.4927914334651140
  5.4123023792642311  2.4521773824531494  2.8310450067952462
  5.4147018463541832  6.1844288159996541  2.3015330899380104
  2.7942688968740530  1.9282889251204607  0.1547554257008686
  5.4114505842707175  5.6265085051177000  6.0296328441687574
  8.0268658974088734  5.0995718297281876  3.3759544243469790
