Br Cl F  Rb
 1.0000000000000000
     8.1328479921460559    0.0000000000000000    0.0000000000000000
     2.7286301266812312    9.0047020688536339    0.0000000000000000
     2.6738291046786378    1.6500682632122401   10.0179792854321814
 Br  Cl  F   Rb 
   1   8   1  10
Cartesian
  6.6554800631336590  7.5461729819976133  4.7046761672807271
  1.3387277147152905  1.7584354007339162  2.7402265963588039
  5.3648230668836012  0.5401114292747992  0.6942596571149490
 10.7425618479924054  8.7832273452408458  6.7833642825452491
  9.2895925425101602  4.2592963906780534  6.8226337541731077
  5.3101644379584849  3.0173445868592137  4.7745315206155414
  6.7668257340384939  5.0553703580840335  0.6929568200677650
  2.6479014687145095  6.2951148870601195  2.6990869508521587
  5.3065299606857810  5.4924770972601529  8.7629033263292087
  6.6832127739652520  9.9974340750196653  8.7624937033148900
  5.2836050793329861  7.9364350813042961  1.5000811274246262
  9.4817184718419316  9.1950995625828948  3.7179238831312480
  4.0420280350780970  3.4183084779369675  1.7471415762350349
  8.0752019124403240  4.5999239863545967  3.7162143340204663
 12.2196027809522683  8.4130322680262779  9.7069434544644473
  2.6435803426006186  1.4383371200654376  5.9547429026706906
  3.8667853383402937  5.8664818999736426  5.7667235506257315
  7.9957280380584370  7.2524252466133206  7.8560158861691134
  6.5316222384790761  2.5649007483025641  7.7872995356037071
 10.7903624637035218  3.7323854663320142  9.7115352926278806
