Li3 Mn2 F7                              
   1.00000000000000     
     5.1291636771463098   -0.1393086545118478    0.9763386385374837
     1.0210062258613002    4.6770986167901283   -0.6517972210534898
     0.0251771789419491   -0.0802808134685453    5.0248831838883632
   Li   Mn   F 
     3     2     7
Direct
  0.6369469560516209  0.6659124932163261  0.9160934655862378
  0.9047672435424159  0.5200028114771011  0.3347719855805132
  0.5369704693081698  0.2038881439381794  0.1697629531710088
  0.1997504137534956  0.3755776320496918  0.7705284293080326
  0.3172261583676699  0.8025057384771779  0.5060328077264089
  0.6494061625371487  0.8605832608969529  0.2791605238509890
  0.1409874945469611  0.1635078341236082  0.4282353043991814
  0.8537928108734500  0.3306994830154967 -0.0053126377901403
  0.5493301834370022  0.4477808146628159  0.5557567736990545
  0.2819969140528542  0.5657565865869634  0.1385926319397842
  0.4107217788749829  0.0193070969927027  0.8441920297736989
  0.9708658246988990  0.7096949956580260  0.6877615937175031
 
  0.00000000E+00  0.00000000E+00  0.00000000E+00
  0.00000000E+00  0.00000000E+00  0.00000000E+00
  0.00000000E+00  0.00000000E+00  0.00000000E+00
  0.00000000E+00  0.00000000E+00  0.00000000E+00
  0.00000000E+00  0.00000000E+00  0.00000000E+00
  0.00000000E+00  0.00000000E+00  0.00000000E+00
  0.00000000E+00  0.00000000E+00  0.00000000E+00
  0.00000000E+00  0.00000000E+00  0.00000000E+00
  0.00000000E+00  0.00000000E+00  0.00000000E+00
  0.00000000E+00  0.00000000E+00  0.00000000E+00
  0.00000000E+00  0.00000000E+00  0.00000000E+00
  0.00000000E+00  0.00000000E+00  0.00000000E+00
