K1 H1 F2
1.0
   3.4403636455535889    0.0000000000000000    0.0082330899313091
   0.0106983438578113    3.4321558630321407    0.0233101230114704
   0.0000000000000000    0.0000000000000000    4.9759540557861328
K H F
1 1 2
direct
   0.0006585309747607    0.2929650545120240    0.5545132160186768 K
   0.5009427666664124    0.7945678830146791    0.0550768673419952 H
   0.5014773607254028    0.7957981228828431    0.8220187425613403 F
   0.5017485022544861    0.7932710647583009    0.2862034440040588 F
