Li7 Mn1 O1 F7
1.0
   5.1327185630798340    0.0000000000000000   -0.0016553266905248
  -0.8833908132216233    4.8282863256108257   -1.4823191165924070
   0.0000000000000000    0.0000000000000000    5.9531984329223633
Li Mn O F
7 1 1 7
direct
   0.9097542166709899    0.6889028549194336    0.5332503318786620 Li
   0.1935515105724335    0.1941283941268921    0.9014417529106140 Li
   0.4097348749637603    0.6669796705245972    0.2743085622787476 Li
   0.4127593636512756    0.6626831889152527    0.7784954905509949 Li
   0.6365156173706055    0.2024411708116531    0.1542021185159683 Li
   0.6378226280212402    0.1881008893251419    0.6668196320533752 Li
   0.1614020019769669    0.1885776668787003    0.4142102599143982 Li
   0.8869552612304686    0.6724251508712769    0.0281576961278915 Mn
   0.5273169875144958    0.4356754124164581    0.9693276882171631 O
   0.7880018949508667    0.9431232213973999    0.8356059193611145 F
   0.7826302051544189    0.9473617672920227    0.3565825223922729 F
   0.2777075767517090    0.9269438982009888    0.5890781283378601 F
   0.0392650887370110    0.4339314103126526    0.7077594995498657 F
   0.2746429145336151    0.9352565407752991    0.0991684496402740 F
   0.5343268513679504    0.4359825849533081    0.4692029058933258 F
   0.0353242084383964    0.4309864938259124    0.2317880541086197 F
