Fe1 H2 F4                               
   1.00000000000000     
     2.6767308262400276   -0.0097098176135526   -1.4758083373956494
    -2.3973347589177885    3.9941162969962440   -1.1475391153563710
     0.3427732433166367    0.1303111730711160    6.8778174277912028
   Fe   H    F 
     1     2     4
Direct
  0.2289163985424631  0.4708239464939361  0.0056060506719901
  0.7740997936550567  0.1200826777186375  0.2284702744985477
  0.6826146966499064  0.8210639846227393  0.7822297249916592
  0.6235913819680373  0.5739677824102174  0.8455713011081291
  0.7297298790706325  0.0110353402966318  0.7376795484121432
  0.8347500456991381  0.3682020575708394  0.1655879364489749
  0.7269215610618764  0.9303707211438258  0.2730502481833488
 
  0.00000000E+00  0.00000000E+00  0.00000000E+00
  0.00000000E+00  0.00000000E+00  0.00000000E+00
  0.00000000E+00  0.00000000E+00  0.00000000E+00
  0.00000000E+00  0.00000000E+00  0.00000000E+00
  0.00000000E+00  0.00000000E+00  0.00000000E+00
  0.00000000E+00  0.00000000E+00  0.00000000E+00
  0.00000000E+00  0.00000000E+00  0.00000000E+00
