Tl2 Ni1 H2 F6                           
   1.00000000000000     
     4.8138484629942537    0.1676259986774812    0.8344112859772259
    -0.4747178836849369    5.5381297470418556   -3.1262251810345481
     0.1932479116438259    0.2210781787527595    6.6249416560726440
   Tl   Ni   H    F 
     2     1     2     6
Direct
  0.4412632272596569  0.3367003899339434  0.9981104388138221
  0.8968681397122250  0.7402845011058153  0.5912233130941876
  0.6667781898276801  0.0378479676428113  0.2943174464991151
  0.1560533088521508  0.8103347635504645  0.0715416326615837
  0.1760140363722662  0.2642472361025738  0.5153821810282230
  0.9538617857485581  0.7471062098272733  0.1131584168301943
  0.4149329147195737  0.8730755741633779  0.0306674767294313
  0.9156027390548864  0.2004116618625169  0.5560328876609211
  0.3772816266482565  0.3274515954494696  0.4736997140798957
  0.4802410245863358  0.8806334238953003  0.4515514876770783
  0.8526807254763146  0.1947581665468101  0.1363056291447274
 
  0.00000000E+00  0.00000000E+00  0.00000000E+00
  0.00000000E+00  0.00000000E+00  0.00000000E+00
  0.00000000E+00  0.00000000E+00  0.00000000E+00
  0.00000000E+00  0.00000000E+00  0.00000000E+00
  0.00000000E+00  0.00000000E+00  0.00000000E+00
  0.00000000E+00  0.00000000E+00  0.00000000E+00
  0.00000000E+00  0.00000000E+00  0.00000000E+00
  0.00000000E+00  0.00000000E+00  0.00000000E+00
  0.00000000E+00  0.00000000E+00  0.00000000E+00
  0.00000000E+00  0.00000000E+00  0.00000000E+00
  0.00000000E+00  0.00000000E+00  0.00000000E+00
