Cd F  Ho Rb
 1.0000000000000000
     4.0110898030648299    0.0000000000000000    0.0000000000000000
     0.0011952378256546    5.7012349634445991    0.0000000000000000
     0.0002007628892409    0.0292137277895764    7.9576780976327175
 Cd  F   Ho  Rb 
   2   8   1   1
Cartesian
  1.9515028363802553  0.2974150239224712  4.6726825376450440
  1.9538447037425488  0.2739665453917909  0.7717067325079916
  1.9522058023891082  4.7657881037327288  2.7329033538430751
  3.9535843552103058  1.6346267548601161  0.4119310037880515
  3.9587414721044913  4.6227220703297602  0.4069924700648360
  3.9586237683637169  1.6469630684976722  5.0311718659448843
  1.9540016507735254  4.4141019008172782  6.7101747929849411
  1.9560119520243271  1.8819489766742208  6.6897522302755030
  1.9538556634071380  1.5096415906071297  2.7148597158908014
  3.9623911743251616  4.6379281574852120  5.0333589304559547
  3.9592181462814668  3.1469628947211850  6.7004926095400243
  3.9582696140750868  3.1378012854318014  2.7183150975787558
