Rb3 P1 O3 F2
1.0
   5.6092166900634775    0.0000000000000000   -0.1748152524232865
  -0.1661183964543381    5.6131353922682496   -0.1415043473243727
   0.0000000000000000    0.0000000000000000    5.6101989746093750
Rb P O F
3 1 3 2
direct
   0.6732679605484009    0.8765108585357666    0.2215252965688705 Rb
   0.6761010885238647    0.3674467206001282    0.7320500016212463 Rb
   0.1653648763895035    0.8771539926528930    0.7288692593574524 Rb
   0.2189840227365494    0.4222032129764557    0.2773646116256714 P
   0.4718796610832214    0.3532992601394653    0.2089015394449234 O
   0.1531432271003723    0.3553435802459717    0.5288981199264526 O
   0.1491984724998474    0.6703049540519714    0.2055794447660446 O
   0.0455707311630249    0.2399779409170150    0.1026029884815216 F
   0.6638306975364685    0.8660084605216980    0.7201656103134155 F
