Na3 Ga1 F6
1.0
   4.7573900222778320    0.0000000000000000    2.5711321830749516
   3.2749275770505064    5.2267299062370602    1.7869473695754996
   0.0000000000000000    0.0000000000000000    5.6409091949462891
Na Ga F
3 1 6
direct
   0.1645390540361404    0.7538116574287415    0.3320103287696838 Na
   0.8386517167091369    0.2545231282711029    0.9819056391716003 Na
   0.4882065355777740    0.2544081807136536    0.6830701231956482 Na
   0.1625271588563919    0.2548021376132965    0.3325713276863098 Ga
   0.7177448868751526    0.4579112231731415    0.3316621184349060 F
   0.0318862535059452    0.4601485431194305    0.6054140925407410 F
   0.2945151925086975    0.0490989722311497    0.0590001121163369 F
   0.6089362502098083    0.0505478717386723    0.3338742256164551 F
   0.0200115535408258    0.0483603253960609    0.6075042486190796 F
   0.3062318265438080    0.4604308605194092    0.0581777505576611 F
