Y1 Ho1 Cd1 F8                           
   1.00000000000000     
     5.4177689754996470   -0.0087980337509893    0.0047024810111673
     0.0099010494606196    5.5242195887757104   -0.0018800137932370
    -0.0035237485825500   -0.0045800041352272    5.3992801378954010
   Y    Ho   Cd   F 
     1     1     1     8
Direct
  0.2229207597514267  0.0528765756292876  0.1582246636628311
  0.7227691051063391  0.0528263222523267  0.6579666355171356
  0.7231611293687390  0.5528622907486902  0.1580210914191607
  0.9645566171251249  0.8235346485779372  0.4012058677234630
  0.9641468927452763  0.2817343385847291  0.9150744686745547
  0.4816675353055309  0.2818161396210545  0.9156917613921159
  0.4820841165395393  0.2819713866796859  0.4011341486434087
  0.9637155836155721  0.8242652996058544  0.9161701049932242
  0.4813988510179720  0.8245600184332760  0.9145820933275431
  0.4818307543997647  0.8239723586948835  0.4004260162582171
  0.9638189359342536  0.2814231703174964  0.4008548829073503
 
  0.00000000E+00  0.00000000E+00  0.00000000E+00
  0.00000000E+00  0.00000000E+00  0.00000000E+00
  0.00000000E+00  0.00000000E+00  0.00000000E+00
  0.00000000E+00  0.00000000E+00  0.00000000E+00
  0.00000000E+00  0.00000000E+00  0.00000000E+00
  0.00000000E+00  0.00000000E+00  0.00000000E+00
  0.00000000E+00  0.00000000E+00  0.00000000E+00
  0.00000000E+00  0.00000000E+00  0.00000000E+00
  0.00000000E+00  0.00000000E+00  0.00000000E+00
  0.00000000E+00  0.00000000E+00  0.00000000E+00
  0.00000000E+00  0.00000000E+00  0.00000000E+00
