Ca2 Ho2 F10
1.0
   5.0886502265930167    0.0000000000000000   -2.2563192844390882
  -0.9452298946847014    4.9602832114372859   -2.0788757801055899
   0.0000000000000000    0.0000000000000000    7.0265150070190430
Ca Ho F
2 2 10
direct
   0.9379550814628601    0.2815544903278351    0.4228064417839050 Ca
   0.4400527775287628    0.7767511010169983    0.4217134416103363 Ca
   0.1145097538828850    0.0439449809491634    0.9389750957489014 Ho
   0.6163890957832336    0.5336612462997437    0.9377574324607849 Ho
   0.0221967101097107    0.4533178210258484    0.1583468019962311 F
   0.8214546442031860    0.6544298529624939    0.6466974616050720 F
   0.7729598879814149    0.9491828083992006    0.0059523601084948 F
   0.7585934400558472    0.1874420642852783    0.7197343111038208 F
   0.2626372873783112    0.1700794249773026    0.7243396043777466 F
   0.3195962607860565    0.6211592555046082    0.6378677487373352 F
   0.5199601054191589    0.3482606709003448    0.1646494269371033 F
   0.2811560928821564    0.7025885581970215    0.0070860097184777 F
   0.2659647762775421    0.1092137545347214    0.3183040916919708 F
   0.7739946842193604    0.8433140516281128    0.3198932111263275 F
