Pb4 F8                                  
   1.00000000000000     
     4.1470152842878996   -0.0017701177346774   -0.6165914792826116
    -2.0173795546383224    3.6157525443245970    0.6331691315190987
    -0.0298731719926484   -0.0156230112455357   14.0871293381059157
   Pb   F 
     4     8
Direct
  0.3746835534426333  0.6053193293711153  0.5319729391552780
  0.1175001673828306  0.8562111121720135  0.7811879564073840
  0.8738204531792991  0.1110642733397060  0.0309625726274390
  0.6227482398334571  0.3583972389414821  0.2814943413013843
  0.7565905581767475  0.2147953422032247  0.7168004977275473
  0.9334110300237579  0.0472899157734741  0.2144260418768722
  0.0544998366698019  0.9202963478121395  0.5871743573974540
  0.4658647612339390  0.5035098572467726  0.8453396891057041
  0.3113496874134937  0.6678376043420258  0.3482337755589101
  0.1836371390280503  0.7931451575996061  0.9747117856277315
  0.6818108848316060  0.2960685961428255  0.4643799383300234
  0.5579666554219946  0.4165099902955683  0.0977719312412791
 
  0.00000000E+00  0.00000000E+00  0.00000000E+00
  0.00000000E+00  0.00000000E+00  0.00000000E+00
  0.00000000E+00  0.00000000E+00  0.00000000E+00
  0.00000000E+00  0.00000000E+00  0.00000000E+00
  0.00000000E+00  0.00000000E+00  0.00000000E+00
  0.00000000E+00  0.00000000E+00  0.00000000E+00
  0.00000000E+00  0.00000000E+00  0.00000000E+00
  0.00000000E+00  0.00000000E+00  0.00000000E+00
  0.00000000E+00  0.00000000E+00  0.00000000E+00
  0.00000000E+00  0.00000000E+00  0.00000000E+00
  0.00000000E+00  0.00000000E+00  0.00000000E+00
  0.00000000E+00  0.00000000E+00  0.00000000E+00
