Na1 Pb2 F5
1.0
   4.1816329956054688    0.0000000000000000   -1.4515820741653451
  -0.8218962842619761    5.0074454670552644   -2.3927876949310312
   0.0000000000000000    0.0000000000000000    6.6554079055786133
Na Pb F
1 2 5
direct
   0.8589190840721130    0.4812346994876861    0.8539130091667175 Na
   0.1959741264581680    0.8182365894317626    0.5264081954956054 Pb
   0.5212342739105225    0.1455209106206894    0.1829176247119903 Pb
   0.6896213293075562    0.5726894736289978    0.5182170867919921 F
   0.3600716590881348    0.4824643135070801    0.8560270071029663 F
   0.0285094734281301    0.3908775746822357    0.1904815286397934 F
   0.0295862555503845    0.9092919826507568    0.1912756562232970 F
   0.6881660223007202    0.0556564219295979    0.5173681974411011 F
