Be Cs F  Tl
 1.0000000000000000
     5.7513272961235469    0.0000000000000000    0.0000000000000000
     2.8604588238148478    5.0159683158680028    0.0000000000000000
    -2.8381059304272402   -1.6407317820366951    5.9983016734638870
 Be  Cs  F   Tl 
   1   1   4   1
Cartesian
  4.7831598521143581  3.4366905521132014  4.7906603430805017
  4.7470676555320424  3.4083806206702119  0.4001587427875782
  3.1972972917563034 -0.8378738302293171  5.3472131261846467
  4.7862619555317778  1.9478833805516553  5.3224075703399469
  4.7859666328227313  3.4473596221216867  3.2279081797045452
  0.6330599493955255 -0.8307829882971913  5.3209438562737299
 -0.9615041185401719  0.0857898651370990  3.5840576275877756
