K2 Er1 F5                               
   1.00000000000000     
     4.1068113470140197    0.0070245970121179   -1.3367512768944971
    -0.8790618685042560    5.5152439498973731   -2.6864978619991846
     0.0354203693495038   -0.0108796641347680    7.0842716879060852
   K    Er   F 
     2     1     5
Direct
  0.1861712042374527  0.8984803368066805  0.7994672465683985
  0.5415310721078843  0.2542717821238357  0.5099624055575336
  0.8642412592712083  0.5766790328115480  0.1544223408072168
  0.9935292792539014  0.9462696452965446  0.4159654589117336
  0.7329662968141573  0.6839813616829565  0.8914936411829510
  0.7328629151719277  0.2070614122016294  0.8934355903130058
  0.3646578648071924  0.5770258014756509  0.1551414169769919
  0.9940087080133615  0.4684584400105554  0.4165667888604447
 
  0.00000000E+00  0.00000000E+00  0.00000000E+00
  0.00000000E+00  0.00000000E+00  0.00000000E+00
  0.00000000E+00  0.00000000E+00  0.00000000E+00
  0.00000000E+00  0.00000000E+00  0.00000000E+00
  0.00000000E+00  0.00000000E+00  0.00000000E+00
  0.00000000E+00  0.00000000E+00  0.00000000E+00
  0.00000000E+00  0.00000000E+00  0.00000000E+00
  0.00000000E+00  0.00000000E+00  0.00000000E+00
