W1 F6
1.0
   4.4662060737609872    0.0000000000000000   -2.5847370624542227
  -0.0136487868458012    4.8818788466868286   -0.0026295431889593
   0.0000000000000000    0.0000000000000000    5.1727766990661621
W F
1 6
direct
   0.4395861625671387    0.4620599746704101    0.4746711850166320 W
   0.1440597176551819    0.2390014380216599    0.1796342134475708 F
   0.4369896948337555    0.2395809739828110    0.7673993110656738 F
   0.7328255772590637    0.2381326556205749    0.4733292460441589 F
   0.1449788361787796    0.6855847239494324    0.4755632877349853 F
   0.4415044784545898    0.6849306821823119    0.1810925006866455 F
   0.7343869805335999    0.6856989860534667    0.7687908411026001 F
