Li4 Fe1 F7
1.0
   5.1742529869079590    0.0000000000000000   -1.3160605430603025
  -0.9352648099429645    5.2353681742974425   -0.2565832138061515
   0.0000000000000000    0.0000000000000000    5.1948032379150391
Li Fe F
4 1 7
direct
   0.6294314861297607    0.9160508513450624    0.6318446397781372 Li
   0.9588332772254944    0.8255926966667175    0.4063196480274200 Li
   0.6958874464035034    0.3315586149692535    0.1688523292541503 Li
   0.1969915032386780    0.3141535222530365    0.4895146191120148 Li
   0.2943629920482635    0.7609620690345764    0.0386502817273140 Fe
   0.5110487937927246    0.0464866086840630    0.9236266613006592 F
   0.3846905529499054    0.5504897832870483    0.7758409380912781 F
   0.9799303412437439    0.8041369318962098    0.7865219712257385 F
   0.5894018411636353    0.6471692919731140    0.2976369261741638 F
   0.0598393492400646    0.5244048833847046    0.2021951973438263 F
   0.8438515067100525    0.1492324769496918    0.4588296413421631 F
   0.2846273183822632    0.0004833936691284    0.3418423831462860 F
