K1 Sr1 F3
1.0
   4.1516265869140634    0.0000000000000000    0.0170244071632624
   2.0757160322623904    3.5916877048975691    0.0216477140784263
   0.0000000000000000    0.0000000000000000    6.2737646102905273
K Sr F
1 1 3
direct
   0.8408967852592468    0.9739017486572266    0.0785549730062485 K
   0.5074734091758729    0.6390497088432311    0.6059413552284241 Sr
   0.8397890329360963    0.9729102253913879    0.5257334113121033 F
   0.1742405891418457    0.3073191940784454    0.8026364445686340 F
   0.5063736438751221    0.6395025253295897    0.2271247506141663 F
