Cs1 Mo1 O1 F5
1.0
   5.2574257850646982    0.0000000000000000    0.5670055747032167
  -0.6766618544330357    5.2678444855057256    0.5431829094886786
   0.0000000000000000    0.0000000000000000    5.2995295524597168
Cs Mo O F
1 1 1 5
direct
   0.0239666774868965    0.7905201315879822    0.5971494913101196 Cs
   0.5306869745254517    0.3045298159122467    0.1034583225846291 Mo
   0.7046115994453430    0.5661479234695435    0.1763369739055634 O
   0.8102967739105225    0.2014463543891907    0.9019423723220825 F
   0.3270087838172913    0.9881462454795837    0.0217518955469131 F
   0.4333382546901703    0.4654901921749115    0.7972070574760437 F
   0.5936495065689087    0.0869245529174805    0.3937029242515564 F
   0.2123107612133026    0.3564458489418030    0.2891989946365356 F
