Pb6 F12                                 
   1.00000000000000     
     3.9257543579362690   -0.0018098404026322    0.0028806008539614
    -0.0006395161944384    6.5858781382551390    0.0539236006675146
     0.0000487928068979    0.1129730104382208   11.7685083353665760
   Pb   F 
     6    12
Direct
  0.2381993739050221  0.7775225325036560  0.6089538608829279
  0.7461402391012163  0.2931374381529049  0.4762253218371761
  0.7396568558669494  0.7785731410420584  0.9384510059771034
  0.2497181464928530  0.7549268704317633  0.2657636482415933
  0.2457497025356090  0.2691553786805462  0.8035771633973500
  0.7502418889423195  0.2710791464042729  0.1326426805029886
  0.2470019988511576  0.6671329487653975  0.8247130494233755
  0.7483309696410412  0.4931835625979135  0.6428518554843693
  0.7476767252480795  0.3835018381887052  0.9163450130666779
  0.2502367920756659  0.5532715832549333  0.0985786776380182
  0.7495009744867038  0.5144543298638987  0.2832303837664557
  0.7443949826493672  0.8785933003075227  0.4885325893582312
  0.2470904086219813  0.1607558162994217  0.5865607070849882
  0.7493820008518189  0.0048245838485513  0.7720617939267205
  0.2509575769597376  0.1673628677195279  0.2533777142279187
  0.7494660261077249  0.8879082860349972  0.1559093422503171
  0.2493121900430500  0.0438283636863370  0.9705881511115406
  0.2480948911509311  0.5329036117306457  0.4584325989635517
 
  0.00000000E+00  0.00000000E+00  0.00000000E+00
  0.00000000E+00  0.00000000E+00  0.00000000E+00
  0.00000000E+00  0.00000000E+00  0.00000000E+00
  0.00000000E+00  0.00000000E+00  0.00000000E+00
  0.00000000E+00  0.00000000E+00  0.00000000E+00
  0.00000000E+00  0.00000000E+00  0.00000000E+00
  0.00000000E+00  0.00000000E+00  0.00000000E+00
  0.00000000E+00  0.00000000E+00  0.00000000E+00
  0.00000000E+00  0.00000000E+00  0.00000000E+00
  0.00000000E+00  0.00000000E+00  0.00000000E+00
  0.00000000E+00  0.00000000E+00  0.00000000E+00
  0.00000000E+00  0.00000000E+00  0.00000000E+00
  0.00000000E+00  0.00000000E+00  0.00000000E+00
  0.00000000E+00  0.00000000E+00  0.00000000E+00
  0.00000000E+00  0.00000000E+00  0.00000000E+00
  0.00000000E+00  0.00000000E+00  0.00000000E+00
  0.00000000E+00  0.00000000E+00  0.00000000E+00
  0.00000000E+00  0.00000000E+00  0.00000000E+00
