Al F  K  Tl
 1.0000000000000000
     3.6794171539472535    0.0000000000000000    0.0000000000000000
    -0.0205569364203943    6.6985628125167764    0.0000000000000000
     0.0054537844539125   -0.0503730136436629    7.4940814029059970
 Al  F   K   Tl 
   2   8   1   1
Cartesian
  0.9061262375828047  6.2855102131460150  1.1073993108199778
  0.9121075913939871  6.2618219220728948  4.9330592932670125
  0.9195249935416145  4.4745285056441952  5.0450219383187305
  0.9142451306192487  4.4986927564753731  0.9966088711640523
  2.7470479067604812  6.2613405990203326  4.8855113280327842
  0.9215221045272880  1.3825634860700269  0.9953653083091848
  0.9278267589174204  1.3550559364712751  5.0537054375639263
  0.9087611494769421  6.2695055297041522  3.0210300354711914
  0.9153253350276570  6.2461630250441313  6.7660222529973142
  2.7479350705025434  6.2774239766816571  1.1604300749989158
  2.7591142175695267  2.8941266780337762  6.7675382919087443
  0.9146779393412300  2.9120319430501498  3.0288487582483481
