Li4 Fe2 F8                              
   1.00000000000000     
     5.7967852083836506    0.0554515477464601   -2.1508506896957686
    -0.1647319817177212    4.8838812622965362   -1.0821474524806995
    -0.0241064736407158   -0.0025095782037771    5.1257317265778228
   Li   Fe   F 
     4     2     8
Direct
  0.5598673186331238  0.6344172559721892  0.2495225688105544
  0.4309234090044094  0.9373779318806780  0.7953235756549244
  0.1185536165438705  0.4101081414714161  0.7492808116931551
  0.8403840213689849  0.9362734076450266  0.7727075776473973
  0.0133072192590571  0.6733382067480260  0.2601898762242179
  0.2683094003328694  0.1612801990163210  0.2763157961944889
  0.7117880037815454  0.7884260348846600  0.0157250917764930
  0.3007672023414480  0.5364653211352661  0.5113796336542938
  0.5465390218305458  0.0030761351774032  0.5153525661140920
  0.1051886545617913  0.0408779083593022  0.5091636422857433
  0.8606440189631426  0.5907512145842253  0.5088049959279323
  0.9797117395047299  0.2953960073116036  0.0170480404548839
  0.4143103832752820  0.2834700408690464  0.0369474256523823
  0.1922667885289631  0.7854604061188472  0.0328153075409325
 
  0.00000000E+00  0.00000000E+00  0.00000000E+00
  0.00000000E+00  0.00000000E+00  0.00000000E+00
  0.00000000E+00  0.00000000E+00  0.00000000E+00
  0.00000000E+00  0.00000000E+00  0.00000000E+00
  0.00000000E+00  0.00000000E+00  0.00000000E+00
  0.00000000E+00  0.00000000E+00  0.00000000E+00
  0.00000000E+00  0.00000000E+00  0.00000000E+00
  0.00000000E+00  0.00000000E+00  0.00000000E+00
  0.00000000E+00  0.00000000E+00  0.00000000E+00
  0.00000000E+00  0.00000000E+00  0.00000000E+00
  0.00000000E+00  0.00000000E+00  0.00000000E+00
  0.00000000E+00  0.00000000E+00  0.00000000E+00
  0.00000000E+00  0.00000000E+00  0.00000000E+00
  0.00000000E+00  0.00000000E+00  0.00000000E+00
