K1 Na1 Li1 Pr1 F6                       
   1.00000000000000     
     6.2134793867975677   -0.1502133237329767   -2.9615131263862389
    -3.6167926723661812    4.9573045387913339   -0.0054737203131731
    -0.0685745078105065   -0.0243628016299693    5.9936667376988506
   K    Na   Li   Pr   F 
     1     1     1     1     6
Direct
  0.9030701882405449  0.3232325147409681  0.8450895445842764
  0.4967687345593420  0.6565728933366480  0.6444529517431636
  0.5653693099885811  0.9661499163307465  0.1813211637061096
  0.0488019978237478  0.8307939813319078  0.4212110637555991
  0.8208810098596153  0.9229361433012969  0.0677926828879769
  0.2870148541384322  0.7655064887992392  0.2801813262321578
  0.4433234813302201  0.2731066684270280  0.6215369871971763
  0.7699870315776461  0.3538339343249010  0.2865077345187270
  0.2906876914206364  0.7670984530438570  0.8031758118398701
  0.8155604679212418  0.9182405487218060  0.5402041132661212
 
  0.00000000E+00  0.00000000E+00  0.00000000E+00
  0.00000000E+00  0.00000000E+00  0.00000000E+00
  0.00000000E+00  0.00000000E+00  0.00000000E+00
  0.00000000E+00  0.00000000E+00  0.00000000E+00
  0.00000000E+00  0.00000000E+00  0.00000000E+00
  0.00000000E+00  0.00000000E+00  0.00000000E+00
  0.00000000E+00  0.00000000E+00  0.00000000E+00
  0.00000000E+00  0.00000000E+00  0.00000000E+00
  0.00000000E+00  0.00000000E+00  0.00000000E+00
  0.00000000E+00  0.00000000E+00  0.00000000E+00
