Na3 Ho1 F6                              
   1.00000000000000     
     3.4492643900573072    0.0009538565802160   -0.8910289355773705
    -0.0423360160745798    5.7808278740474863   -0.1483143966802395
    -0.0123709759885688   -0.0002642502198360    7.0950033266680865
   Na   Ho   F 
     3     1     6
Direct
  0.0012648136394695  0.0667780433957033  0.5622255019585622
  0.3708094679249511  0.6419586393144685  0.3030746648477302
  0.2876596592762933  0.1149488153595385  0.1357777486088887
  0.6334040546248207  0.5363652518200666  0.8277872484151536
  0.1373725041586897  0.2952828119441300  0.8369996383893989
  0.5335394320329822  0.8192626649048265  0.6259433519351214
  0.1863429329267308  0.7386141284230898  0.9328122672150012
  0.8491351522860374  0.9139978270141790  0.2608875883495448
  0.4897887472794594  0.3520901289171425  0.5418639668892827
  0.7857321297269401  0.4154741514536811  0.1324402055793501
 
  0.00000000E+00  0.00000000E+00  0.00000000E+00
  0.00000000E+00  0.00000000E+00  0.00000000E+00
  0.00000000E+00  0.00000000E+00  0.00000000E+00
  0.00000000E+00  0.00000000E+00  0.00000000E+00
  0.00000000E+00  0.00000000E+00  0.00000000E+00
  0.00000000E+00  0.00000000E+00  0.00000000E+00
  0.00000000E+00  0.00000000E+00  0.00000000E+00
  0.00000000E+00  0.00000000E+00  0.00000000E+00
  0.00000000E+00  0.00000000E+00  0.00000000E+00
  0.00000000E+00  0.00000000E+00  0.00000000E+00
