K1 H1 F2
1.0
   3.4518992900848393    0.0000000000000000   -0.0000404777347279
   0.0087832410393770    3.4434452096156263    0.0072659784927959
   0.0000000000000000    0.0000000000000000    4.9680967330932617
K H F
1 1 2
direct
   0.2468300908803940    0.5925807952880859    0.0378516279160976 K
   0.7472556829452516    0.0910661071538925    0.5376114249229431 H
   0.7468963861465455    0.0916558727622032    0.3048137128353119 F
   0.7468857765197755    0.0915175303816795    0.7703245878219604 F
