K1 Ba1 Zr2 Cd1 F13
1.0
   5.3663573265075684    0.0000000000000000    2.0485026836395273
   2.2699301788526327    6.5102831213653358    2.1566946506500235
   0.0000000000000000    0.0000000000000000    8.1629581451416016
K Ba Zr Cd F
1 1 2 1 13
direct
   0.0384538546204568    0.8986060023307799    0.7701660990715027 K
   0.4185526072978973    0.7350568175315857    0.1689893156290054 Ba
   0.7935007214546203    0.5058635473251342    0.6571215987205505 Zr
   0.1789724677801132    0.3118641376495361    0.0777606740593910 Zr
   0.5897591114044189    0.1281924992799759    0.4463632702827454 Cd
   0.3451589643955231    0.3657908737659454    0.2463196069002151 F
   0.5490164160728455    0.0802352055907249    0.0206291768699884 F
   0.7081820964813232    0.2658210992813110    0.6175733208656311 F
   0.1578679382801056    0.2628312110900879    0.6199495196342468 F
   0.9562501907348632    0.4787789285182952    0.8758347630500793 F
   0.0095457853749394    0.6441268324851990    0.0928577110171318 F
   0.6007511615753174    0.7943763136863708    0.7526144981384277 F
   0.0978445708751678    0.0875727236270905    0.0129022449254990 F
   0.5534268021583557    0.6729277968406677    0.4896788597106934 F
   0.1728276908397675    0.0659943521022797    0.3175531625747681 F
   0.4501447081565856    0.4703730940818787    0.8789094090461731 F
   0.0338736437261105    0.6741889119148254    0.4862283766269684 F
   0.7864048480987548    0.3727683722972869    0.2419637441635132 F
