Na1 H1 F2
1.0
   3.4205081462860112    0.0000000000000000   -0.0060239396989341
   1.7112339821214855    2.6943409652975152    1.1661155223846431
   0.0000000000000000    0.0000000000000000    4.9861640930175781
Na H F
1 1 2
direct
   0.7299124002456665    0.3117837309837341    0.2028973400592804 Na
   0.2281353473663331    0.3140969872474670    0.7035619020462036 H
   0.3098470270633698    0.1480200439691543    0.9512344002723694 F
   0.1484614014625550    0.4762680828571320    0.4554216563701630 F
