Ba2 Cr2 F10
1.0
   5.7068529129028320    0.0000000000000000    1.3881703615188610
  -0.0775512522085462    4.8136248504733850    0.3979349434375760
   0.0000000000000000    0.0000000000000000    7.2601375579833984
Ba Cr F
2 2 10
direct
   0.9448373913764954    0.0917299017310143    0.1642123162746430 Ba
   0.3427302241325378    0.6548318266868591    0.5243697166442871 Ba
   0.8102704882621765    0.2753847837448120    0.6710909605026246 Cr
   0.4790230095386505    0.7303818464279175    0.0084680421277881 Cr
   0.6781367659568787    0.5707551836967468    0.1655993014574051 F
   0.4314248859882355    0.0156841780990362    0.1814945042133332 F
   0.0061575276777148    0.4037138521671295    0.8219540715217591 F
   0.0839895531535149    0.1348848491907120    0.5074173808097839 F
   0.8535347580909729    0.6107837557792664    0.5074871182441711 F
   0.7575122117996216    0.9378665685653685    0.8477316498756410 F
   0.2048969417810440    0.5541753172874451    0.1720690876245499 F
   0.6111686825752258    0.1465331315994263    0.5138268470764160 F
   0.5280274152755737    0.4364621341228485    0.8324446678161622 F
   0.2835386395454407    0.9027931094169616    0.8578214645385743 F
