Ba4 Al1 F11                             
   1.00000000000000     
     6.0198610677989857   -0.0057553573875086    0.0008193494858504
    -0.0081875439828470    7.4469459860875498    3.0608860550362866
    -0.0022482555846974    0.0081169756868888    6.1521014265360394
   Ba   Al   F 
     4     1    11
Direct
  0.0211394351642296  0.4204557203404439  0.1587726861016621
  0.5201566831959110  0.9770187384900942  0.3782769949119786
  0.5203843128330824  0.3819858324887290  0.6779485048480284
  0.0180825061412567  0.0085952197144466  0.8633197032621857
  0.0205862788540864  0.6804411006073361  0.5287562917620986
  0.0196681556503625  0.9224603693889770  0.4084064292654701
  0.8039922090185105  0.6772520971116720  0.7420422286657289
  0.2379346217849445  0.6799948910329557  0.3173670428601869
  0.8040955939988242  0.6775623025712663  0.3180868183059802
  0.0216326074132330  0.4381214970035258  0.6491996406980756
  0.5241871571130986  0.9753625017796379  0.8826036439928832
  0.7684822784056142  0.2119599652206754  0.0345017941673036
  0.2704968172248928  0.2102564998915026  0.0343017169645366
  0.2373384643449056  0.6790039752864960  0.7418882576562739
  0.7681928352791616  0.2115327444849151  0.4911644606709056
  0.2720130944368607  0.2102621761438378  0.4924965017028693
 
  0.00000000E+00  0.00000000E+00  0.00000000E+00
  0.00000000E+00  0.00000000E+00  0.00000000E+00
  0.00000000E+00  0.00000000E+00  0.00000000E+00
  0.00000000E+00  0.00000000E+00  0.00000000E+00
  0.00000000E+00  0.00000000E+00  0.00000000E+00
  0.00000000E+00  0.00000000E+00  0.00000000E+00
  0.00000000E+00  0.00000000E+00  0.00000000E+00
  0.00000000E+00  0.00000000E+00  0.00000000E+00
  0.00000000E+00  0.00000000E+00  0.00000000E+00
  0.00000000E+00  0.00000000E+00  0.00000000E+00
  0.00000000E+00  0.00000000E+00  0.00000000E+00
  0.00000000E+00  0.00000000E+00  0.00000000E+00
  0.00000000E+00  0.00000000E+00  0.00000000E+00
  0.00000000E+00  0.00000000E+00  0.00000000E+00
  0.00000000E+00  0.00000000E+00  0.00000000E+00
  0.00000000E+00  0.00000000E+00  0.00000000E+00
