Li3 As1 F6                              
   1.00000000000000     
     5.0672108435081817    0.0951386678376440    1.0177890794069016
     1.6018042379046400    4.4900708610844786    2.8168015186916353
     0.0190716780189307   -0.0502770378500710    5.5045137533265338
   Li   As   F 
     3     1     6
Direct
  0.3663977429054437  0.1939983058248803  0.9376012323455906
  0.8675630341460789  0.3561697341712261  0.6079643232751294
  0.8632626580275115  0.6729552672053183  0.9746670783478836
  0.8674346020602192 -0.0000687042255296  0.3224064441298586
  0.1157936800891442  0.9364150019994936  0.0398036365500450
  0.6645101418546241  0.7716051728765835  0.2837082843646666
  0.0696055732871474  0.2679964318815494  0.2850478602286246
  0.6203336139098048  0.3480149987135144  0.0394003218043796
  0.6682704190108174  0.0885726477967903  0.7082246264249322
  0.0654996881949836  0.5265494177630178  0.7068732402393088
 
  0.00000000E+00  0.00000000E+00  0.00000000E+00
  0.00000000E+00  0.00000000E+00  0.00000000E+00
  0.00000000E+00  0.00000000E+00  0.00000000E+00
  0.00000000E+00  0.00000000E+00  0.00000000E+00
  0.00000000E+00  0.00000000E+00  0.00000000E+00
  0.00000000E+00  0.00000000E+00  0.00000000E+00
  0.00000000E+00  0.00000000E+00  0.00000000E+00
  0.00000000E+00  0.00000000E+00  0.00000000E+00
  0.00000000E+00  0.00000000E+00  0.00000000E+00
  0.00000000E+00  0.00000000E+00  0.00000000E+00
