K1 Y2 F7
1.0
   4.4618563652038574    0.0000000000000000    0.0034156336914750
  -0.0068723319967059    4.4545397198451138   -0.0011689767707139
   0.0000000000000000    0.0000000000000000    8.9353752136230469
K Y F
1 2 7
direct
   0.7170063853263855    0.4631682634353638    0.6925591826438904 K
   0.2183377295732498    0.9635668396949767    0.9435303211212158 Y
   0.2171400785446167    0.9625542163848878    0.4413848519325256 Y
   0.2158259451389313    0.4624497592449188    0.4558046460151672 F
   0.2169447839260101    0.9630081057548523    0.6922036409378052 F
   0.7176144123077393    0.9623368382453918    0.4549278914928436 F
   0.7180933952331543    0.9634478092193604    0.9305090904235840 F
   0.7216941118240356    0.4628638327121735    0.1924662292003632 F
   0.2191603630781174    0.9628491997718812    0.1929529458284378 F
   0.2190155535936356    0.4633813500404358    0.9297131896018982 F
