Na1 Li3 Mn2 F8
1.0
   5.5909600257873535    0.0000000000000000    1.3913809061050424
   2.4206336811700013    4.7636166296683751    2.9672803878784180
   0.0000000000000000    0.0000000000000000    6.2442722320556641
Na Li Mn F
1 3 2 8
direct
   0.8423190116882324    0.8787617683410645    0.5504786372184753 Na
   0.6691944599151611    0.4712793529033660    0.5747742056846619 Li
   0.1280447244644165    0.2555770576000214    0.0124536361545324 Li
   0.2495560348033905    0.1708577424287796    0.5597456097602844 Li
   0.3451990783214570    0.6174444556236267    0.0701630860567093 Mn
   0.7468934059143066    0.9184764623641968    0.0616324841976166 Mn
   0.5248991250991822    0.8797745704650879    0.3847457766532897 F
   0.5171425342559814    0.8900455832481384    0.8712269067764283 F
   0.4905517697334290    0.3554938435554504    0.8935238122940065 F
   0.0403801202774048    0.4606310129165649    0.2084404677152634 F
   0.0450934097170830    0.9428180456161498    0.1904438734054566 F
   0.9865851998329163    0.4273481965065002    0.6980565786361695 F
   0.0388032011687756    0.9296168088912964    0.7644000649452211 F
   0.5396066308021547    0.3466524481773376    0.4079331457614899 F
