K3 S1 O3 F3
1.0
   4.9073147773742667    0.0000000000000000    1.6849616765975961
   0.8240383118893745    4.8098570034080561   -1.6002775430679315
   0.0000000000000000    0.0000000000000000    7.6500205993652344
K S O F
3 1 3 3
direct
   0.9298352003097534    0.0805067792534828    0.4433175623416901 K
   0.7358430624008180    0.7789014577865601    0.9336496591567994 K
   0.4373879134654999    0.5713701844215393    0.4246265292167664 K
   0.2507443428039551    0.3003160357475281    0.9339355230331422 S
   0.2211338877677917    0.2917082905769348    0.7498343586921693 O
   0.5269904136657715    0.3013958334922791    0.9360800385475160 O
   0.0359585247933865    0.4741942882537842    0.1172301918268204 O
   0.4932603538036346    0.0169022828340530    0.3174401521682740 F
   0.8748116493225098    0.6354192495346069    0.5511934161186218 F
   0.2030830383300781    0.9776795506477357    0.9350295066833497 F
