F  Li Nb
 1.0000000000000000
     5.1583458702061398    0.0000000000000000    0.0000000000000000
    -0.0309534815873562    5.7043804263871003    0.0000000000000000
     0.1514262478670276   -0.9373915897492890    7.5531757988233821
 F   Li  Nb 
  12   7   1
Cartesian
  5.0134793197091740  1.2853545455359030  6.2322703527092482
  3.3396853817577412 -0.5848836971757262  7.4169417083400182
  0.8870655024346792  4.2480919140368210  6.3396323873548424
  5.2249539114092967 -0.1877222743474699  3.8285923556963026
  3.3252669045067984  3.6594187758645140  4.8086431282923172
  0.0579948729402542  4.0616784402322867  1.2170757148803562
  2.5311398550267614  2.4422655444669741  7.4593649154262796
  2.6163009662020311  0.7175591813543556  4.7158208936706849
  0.8634541997600693  1.0398162991229201  1.1545709171956067
  0.7779363545893696  2.7628617647084943  3.9050685703999894
  3.5374394327156753  2.1988579579044303  2.3875071065912010
  2.4784217200245440  4.9403722860626260  2.2814398596861607
  1.9151309533614858  1.5081074131196557  3.0427345327391122
  4.2783581224694212  1.7416363340302965  4.3181202661760514
  4.1996704225285040  2.2065196240681617  0.5481828981275000
  4.2953428801065634  3.9226101970115876  3.1064681632256135
  1.4948899220924057  1.9832098156290738  5.5821680530003004
  1.6752872909379823  4.5990441549823409  4.3123243352400698
  4.2650511482511506 -0.4479262257999349  5.5322034726727294
  1.6076934401865812  5.0590114100386385  0.5377900992939562
