Li2 Sb1 F5                              
   1.00000000000000     
     4.9166428764917045   -0.0162603953573321    1.5511486934430263
    -1.5462270891692060    4.8429995089222730   -0.2921779738767067
    -0.0071864042730189   -0.0238299583365017    5.0743077714851577
   Li   Sb   F 
     2     1     5
Direct
  0.8573853081662386  0.0454230993343579  0.8915440014764073
  0.3068816932622156  0.8784223669138600  0.0575226018366512
  0.6026775051747358  0.4962106884755234  0.4412043836692724
  0.2127992550065938  0.2502481075283365  0.6832792257188026
  0.5755536216307947  0.8318189048173968  0.7170578103190470
  0.5793566586677568  0.2168801644153218  0.1062999969983663
  0.3442509583145534  0.6286335571185426  0.3002590570655685
  0.9192869286406367  0.8125075000723506  0.1244969917637795
 
  0.00000000E+00  0.00000000E+00  0.00000000E+00
  0.00000000E+00  0.00000000E+00  0.00000000E+00
  0.00000000E+00  0.00000000E+00  0.00000000E+00
  0.00000000E+00  0.00000000E+00  0.00000000E+00
  0.00000000E+00  0.00000000E+00  0.00000000E+00
  0.00000000E+00  0.00000000E+00  0.00000000E+00
  0.00000000E+00  0.00000000E+00  0.00000000E+00
  0.00000000E+00  0.00000000E+00  0.00000000E+00
