K4 Li2 Tm2 F12
1.0
   5.9148192405700684    0.0000000000000000   -0.0199180375784629
  -0.3174793727535395    6.9926392646100455   -1.7616298198699942
   0.0000000000000000    0.0000000000000000    7.9110999107360840
K Li Tm F
4 2 2 12
direct
   0.7718545198440552    0.6583967208862305    0.5038671493530273 K
   0.7778601646423340    0.1552594453096390    0.1726563125848770 K
   0.2328152060508728    0.3829803466796875    0.6280049085617065 K
   0.3024181425571442    0.9367852807044984    0.8288617134094238 K
   0.7646968364715576    0.1419518291950226    0.6139996647834778 Li
   0.2749922871589661    0.4087473154067993    0.2081471532583237 Li
   0.7599329948425293    0.5693213343620300    0.9758124947547913 Tm
   0.2563912868499756    0.8929351568222047    0.3332880437374115 Tm
   0.8162311315536499    0.3137451112270355    0.4912779927253723 F
   0.9471516609191895    0.8044895529747010    0.1789987087249756 F
   0.4893379509449005    0.8300153613090515    0.1194616109132767 F
   0.2216026932001114    0.6216575503349304    0.3977371454238891 F
   0.0468574911355972    0.9984173178672791    0.5622306466102600 F
   0.5214197635650635    0.9716556668281555    0.5216190814971924 F
   0.9978117942810059    0.6681805849075317    0.8113414645195007 F
   0.5818868875503540    0.4775190949440002    0.1823046207427979 F
   0.5356674790382385    0.6343629360198975    0.7821165323257446 F
   0.6601544618606567    0.2733041644096375    0.8388777375221252 F
   0.0499589629471302    0.4055459499359131    0.0391563698649406 F
   0.2534467279911041    0.1665620952844620    0.2714757919311523 F
