Rb3 Bi1 F6                              
   1.00000000000000     
     5.8351501965330339   -0.1126950517795785   -0.8324535445959594
    -1.1183791009733992    6.2355506382807739   -1.1926219386676002
    -0.1075740877548008   -0.0226975703893562    6.4203661096434956
   Rb   Bi   F 
     3     1     6
Direct
  0.0995584895049667  0.6194300792388759  0.4210609794966161
  0.5996850051575968  0.6178969498597626  0.9202091102330451
  0.5998783273621398  0.1187175878417918  0.4192445070353262
  0.0980928827066173  0.1191475180264569  0.9208055173180957
  0.3670052433038262  0.9589723060579450  0.7646631189936987
  0.1066553058377047  0.3490303002236483  0.6902709877134515
  0.8268574478137817  0.8605736753355419  0.6599266653487887
  0.0868572811216925  0.8881535451122289  0.1497151565562631
  0.3692249351350554  0.3765882465525061  0.1822712724310415
  0.8300524292970675  0.2812784610990062  0.0785225194683999
 
  0.00000000E+00  0.00000000E+00  0.00000000E+00
  0.00000000E+00  0.00000000E+00  0.00000000E+00
  0.00000000E+00  0.00000000E+00  0.00000000E+00
  0.00000000E+00  0.00000000E+00  0.00000000E+00
  0.00000000E+00  0.00000000E+00  0.00000000E+00
  0.00000000E+00  0.00000000E+00  0.00000000E+00
  0.00000000E+00  0.00000000E+00  0.00000000E+00
  0.00000000E+00  0.00000000E+00  0.00000000E+00
  0.00000000E+00  0.00000000E+00  0.00000000E+00
  0.00000000E+00  0.00000000E+00  0.00000000E+00
