Ba2 Li2 Ni2 F10
1.0
   5.5326886177062988    0.0000000000000000    0.4967814087867735
   2.5397335029547032    5.3399912316143006   -0.9491277933120720
   0.0000000000000000    0.0000000000000000    7.2336015701293945
Ba Li Ni F
2 2 2 10
direct
   0.2753215134143829    0.1408520936965942    0.4406693577766418 Ba
   0.6704024076461792    0.3920137882232666    0.9795023202896118 Ba
   0.3645757138729095    0.0172551106661558    0.9260895848274231 Li
   0.5822426676750183    0.5152496695518494    0.4937570095062256 Li
   0.9727401733398438    0.7651554942131044    0.7109384536743164 Ni
   0.9727900624275208    0.7674213051795959    0.2095668017864227 Ni
   0.1644133776426315    0.7082542181015015    0.4332103729248047 F
   0.6852869391441345    0.6831135749816895    0.3193516433238983 F
   0.1972350627183914    0.3676624298095703    0.0986592993140221 F
   0.7483807206153870    0.1657627075910568    0.3212314248085022 F
   0.2614463865756989    0.8496410846710205    0.1023861765861511 F
   0.0996042266488075    0.0352125801146030    0.7701317071914673 F
   0.6024606227874756    0.0270004719495773    0.7134149670600891 F
   0.8465849161148071    0.4972105622291565    0.6499710083007812 F
   0.3440102040767670    0.5071580410003662    0.7066937088966370 F
   0.7818549871444702    0.8261935710906982    0.9864113926887512 F
