Li3 P1 S1 O5 F2
1.0
   4.6247138977050790    0.0000000000000000   -1.6142345666885367
  -2.6790152633257946    4.2026905286342258   -2.3697018623352046
   0.0000000000000000    0.0000000000000000    8.2286872863769531
Li P S O F
3 1 1 5 2
direct
   0.4729822278022766    0.8513213396072388    0.6580284237861633 Li
   0.3695170283317566    0.3744408488273621    0.8959466218948364 Li
   0.0192730911076069    0.9975945353507996    0.3622636497020721 Li
   0.0616450570523738    0.8732842803001403    0.9694232940673828 P
   0.5636613965034485    0.4681730270385742    0.3527616262435913 S
   0.3002053499221802    0.4176978766918182    0.4124633073806763 O
   0.4547036290168762    0.1287277936935425    0.1634876579046250 O
   0.5655345916748047    0.6707469224929810    0.2711215913295746 O
   0.8624454140663147    0.7314104437828063    0.0408462733030319 O
   0.9510939121246338    0.0117031643167138    0.8565422296524049 O
   0.3018889427185059    0.0934348255395889    0.6335201859474182 F
   0.1361071914434433    0.6248695850372313    0.8265672922134399 F
