F  Ho Li Mg
 1.0000000000000000
     4.8517201403887533    0.0000000000000000    0.0000000000000000
    -0.0007359133390860    5.1686717354035103    0.0000000000000000
     0.0058872046714337   -2.5881088357908895    4.4759759082908852
 F   Ho  Li  Mg 
   6   1   1   1
Cartesian
  2.7088489022183984 -1.4756170046563535  3.0115523975666889
  2.7051331352433170  1.1523006371758659  1.4304271278891845
  0.4681680942881419 -0.5567893885216564  1.4334267694938978
  0.4604517772678434  1.9686715373223671  0.0191344914612242
  0.4658905348012774  2.0643127620429476  3.0177968598248763
  2.7107543460048116  3.7980747918610249  0.0238029104791708
  4.0137763543248610  0.2960554523430609  2.9807649522708330
  1.5903524688457356  2.8794764980137919  1.4871249830066258
  1.5925717469020018 -2.2916313758930231  4.4718881679371316
