Na1 H3 F4                               
   1.00000000000000     
     3.3875006372833867   -0.4612679372610083   -0.1654814386693663
    -1.0013326078893625    6.1001942845670794   -0.9844651371050688
    -0.1460605781301927    0.1841790724066850    4.4494035997121335
   Na   H    F 
     1     3     4
Direct
  0.7683412292636679  0.0839420612556613  0.1948178985822704
  0.2657561963450457  0.5645592823585623  0.6228059377859048
  0.2646720763746120  0.0786786325139352  0.6915889627869612
  0.3148246066174114  0.5987722759690839  0.1290021716570172
  0.1841598022441613  0.4858477831884866  0.4137643243325838
  0.2876384094476261  0.1921095453669791  0.9162115070789113
  0.2429022712522028 -0.0337871706057214  0.4671473836844333
  0.3976038233055077  0.6795206311464971  0.9575249983055579
 
  0.00000000E+00  0.00000000E+00  0.00000000E+00
  0.00000000E+00  0.00000000E+00  0.00000000E+00
  0.00000000E+00  0.00000000E+00  0.00000000E+00
  0.00000000E+00  0.00000000E+00  0.00000000E+00
  0.00000000E+00  0.00000000E+00  0.00000000E+00
  0.00000000E+00  0.00000000E+00  0.00000000E+00
  0.00000000E+00  0.00000000E+00  0.00000000E+00
  0.00000000E+00  0.00000000E+00  0.00000000E+00
