Y3 F9
1.0
   5.3071513175964364    0.0000000000000000    1.6101615428924558
   0.4152879758748191    5.2268183793912266    1.8955684900283820
   0.0000000000000000    0.0000000000000000    6.2919521331787109
Y F
3 9
direct
   0.6118871569633484    0.0366921611130238    0.7950158715248108 Y
   0.2798184156417847    0.8098840117454528    0.4613394737243653 Y
   0.9111253023147583    0.3987104892730713    0.1529757827520370 Y
   0.3199486434459686    0.8124444484710693    0.8095200657844545 F
   0.8307530283927917    0.1867805123329163    0.9476095438003541 F
   0.2835938036441803    0.1458894163370132    0.0920140668749809 F
   0.5891050100326538    0.7080095410346985    0.1613619625568390 F
   0.9154137372970581    0.6816949248313904    0.7779148221015930 F
   0.4617094695568085    0.4285112023353577    0.6187847256660461 F
   0.5966526269912720    0.0737606957554817    0.4055902659893036 F
   0.0583140328526497    0.6439406275749207    0.3005096018314362 F
   0.9856347441673279    0.1436806321144104    0.5008368492126465 F
