Na2 Nd3 F11                             
   1.00000000000000     
     5.2976848888621850   -0.0072485489008582    2.3935675412439958
     2.5802367404653834    6.2119770185136067    1.3298281092665931
     0.0637669295556168   -0.0116615881562217    6.9018872605726509
   Na   Nd   F 
     2     3    11
Direct
  0.6675260778493107  0.2438257464896373  0.5063698503775694
  0.0759397355765696  0.0208311520117575  0.9104456845133866
  0.2942035879012939  0.4280286268717727  0.0677464270493655
  0.4504039405887145  0.8359675690572763  0.3490105405826167
  0.8710660305281404  0.6324418489225014  0.7083717740740333
  0.8549177782484858  0.5391105188292085  0.3906866935534349
  0.4472226327748786  0.7239543040360445  0.0262209838644715
  0.5958490309011992  0.1328797999362435  0.2086026248430820
  0.5495963954952301  0.9399211405237412  0.5975835239227131
  0.1910214963235947  0.3265038313566819  0.8205865897486461
  0.2974602354757026  0.5387867712866149  0.3912371513558770
  0.8900182026766625  0.7259305335254883  0.0255930139802819
 -0.0001167216324748  0.9378452326228612  0.5963801082061810
  0.1500192906370277  0.1311080590502616  0.2073227700868926
  0.7440911191561869  0.3252378821398032  0.8187034973149067
  0.3732337125537344  0.6322863970354414  0.7078670500063520
 
  0.00000000E+00  0.00000000E+00  0.00000000E+00
  0.00000000E+00  0.00000000E+00  0.00000000E+00
  0.00000000E+00  0.00000000E+00  0.00000000E+00
  0.00000000E+00  0.00000000E+00  0.00000000E+00
  0.00000000E+00  0.00000000E+00  0.00000000E+00
  0.00000000E+00  0.00000000E+00  0.00000000E+00
  0.00000000E+00  0.00000000E+00  0.00000000E+00
  0.00000000E+00  0.00000000E+00  0.00000000E+00
  0.00000000E+00  0.00000000E+00  0.00000000E+00
  0.00000000E+00  0.00000000E+00  0.00000000E+00
  0.00000000E+00  0.00000000E+00  0.00000000E+00
  0.00000000E+00  0.00000000E+00  0.00000000E+00
  0.00000000E+00  0.00000000E+00  0.00000000E+00
  0.00000000E+00  0.00000000E+00  0.00000000E+00
  0.00000000E+00  0.00000000E+00  0.00000000E+00
  0.00000000E+00  0.00000000E+00  0.00000000E+00
