Pb2 F4
1.0
   3.8573193550109868    0.0000000000000000   -0.0000029275786345
   0.0011710615583762    3.8544548163055361   -0.0027465217281129
   0.0000000000000000    0.0000000000000000    6.5795912742614746
Pb F
2 4
direct
   0.3378743827342987    0.7270815968513489    0.6416126489639282 Pb
   0.8352535367012024    0.2265024036169052    0.1283267289400101 Pb
   0.3366202116012573    0.7300408482551575    0.2443649023771286 F
   0.8377400636672974    0.7286003828048706    0.8852283954620361 F
   0.3360300958156586    0.2287183701992035    0.8847414255142212 F
   0.8389651775360107    0.2290785461664200    0.5245498418807983 F
