Na2 Er2 F8
1.0
   6.5665473937988281    0.0000000000000000   -1.0935217142105100
  -0.1713382055998715    3.6168543499008701   -1.1099849939346311
   0.0000000000000000    0.0000000000000000    6.5221138000488281
Na Er F
2 2 8
direct
   0.3405700623989105    0.9156869649887084    0.5113070011138916 Na
   0.1152090653777122    0.1767076253890991    0.0350430905818939 Na
   0.8588922619819640    0.4272707998752594    0.5344570875167847 Er
   0.5973853468894958    0.6653667688369750    0.0114321419969201 Er
   0.1394417285919189    0.3639323413372039    0.4080748558044434 F
   0.5590115785598755    0.4823783040046691    0.6439607143402100 F
   0.3174069225788116    0.7279155850410461    0.1380151808261871 F
   0.8968547582626342    0.6105961203575133    0.9018067717552184 F
   0.4397070109844207    0.1041420847177505    0.8875502347946166 F
   0.0157756116241217    0.9882125258445740    0.6590707302093506 F
   0.7666346430778502    0.2379770725965500    0.1567335277795792 F
   0.6896967887878418    0.8543670177459717    0.3885865211486816 F
