F  K  La Sr
 1.0000000000000000
     7.1989152338536275    0.0000000000000000    0.0000000000000000
    -1.1896609016542268    7.1010754726361487    0.0000000000000000
    -1.2010043913630073   -3.8483758191737101    5.9584832826229057
 F   K   La  Sr 
  12   1   1   4
Cartesian
  6.1104975878419729  3.2528422315572727  1.4284644913924076
  2.4884371943155190  4.9005981885754393  0.4793335115075237
  4.7356113302209319  2.9946507740350321  5.3118525103290350
  2.5246686359104116 -2.2238411445471895  4.2266173821928508
  2.4329046531499392  1.5270064498590492  2.5107060325360164
  4.9733708021467562  0.6243953391907272  0.9667088475101991
  6.0538794861775953 -0.4485661336495453  3.4047362241490293
  3.6086275765223532  4.0351684662328298  2.8516318716216564
  0.0766761081650799  2.1936201490132565  3.7183727955474577
  0.0255758870694132  5.7217261842385572  1.9893744026957705
 -0.0132942054278161 -1.2966686574920483  5.9353148584372768
  3.6573147856450396  0.3578150736745788  4.8897127053692468
  2.4516526406732186  0.1809233031876192  0.1628975997633051
  1.2524978232354260  3.6303168670040966  2.1497378284305619
  1.2614034532169980 -0.0270139259338419  4.1396719526947638
  4.8572983531286393  5.4850545738699612  1.1367011001694138
  4.8595069528421257 -1.8581933893227118  5.1343685656045537
  4.8556794344056531  1.7916478528696973  3.1545112053384967
