Be Cs F  Na
 1.0000000000000000
     5.8225051961390628    0.0000000000000000    0.0000000000000000
     2.9461806339609256    6.0378772476645510    0.0000000000000000
     2.9629471750449459   -0.7573074476190398    6.0586431572201391
 Be  Cs  F   Na 
   2   2   7   1
Cartesian
  4.2412214615765311  1.0876905803611490  2.3398695394442615
  4.2797068691476907  2.9640542948577462  4.5445330809067448
  7.1409363077706036  3.5124765164221650  2.0908409164187458
  7.1339608956156582  5.1489406793451638  6.0300378605028699
  3.8969122895913300  1.1925513416264235  0.8390861758436601
  3.2146228555611409  0.1806662218792427  3.0685587056138259
  5.7217602119221374  0.6405978976240352  2.5713589467750246
  9.0915503171478314  2.1088289962047213  5.3513128076060381
  9.7679084115181016  4.4696816875397687  4.6750614491306735
  5.7653493683635100  2.6774421765266045  4.9182841127312038
  4.1290985126977597  2.6347050018098526  2.9266881776250133
  7.1695114650296139  0.7591018503490038  4.5650495774274518
