K1 Na1 Mg2 B1 P2 H1 O8 F4               
   1.00000000000000     
     5.1702244332282490   -0.0630020373930925    0.9050021869991234
    -2.2903597207137385    4.9205891068199135    0.9247671677128203
     0.1539619657755767   -0.0086082385256872   11.0847747485533521
   K    Na   Mg   B    P    H    O    F 
     1     1     2     1     2     1     8     4
Direct
  0.5925028297407504  0.5168443735096621  0.7261323348201245
  0.1418462643414931  0.2294383647582812  0.0969737436255533
  0.9067485630638461  0.8813536291754820  0.3795900263987403
  0.0252355911196116  0.3391007207823246  0.5028539831713621
  0.1782636014737492  0.8549684525455665  0.8387238584234598
  0.3448242646586583  0.8992987368591744  0.5793939980032873
  0.4034433979859804  0.7548120339735602  0.2325335993708623
  0.4136428028144535  0.8289825685754910  0.0288579253225789
  0.3780215752693876  0.9758310248761023  0.7122410070493779
  0.2348633927295848  0.4677702066621364  0.3222765571007600
  0.6610680251556147  0.0047080839655803  0.5021065021783220
  0.1717052870204601  0.0337576809584738  0.5232705663614244
  0.4255349962326075  0.6914969389092054  0.0929699147009322
  0.1918255416061370  0.5852844811842643  0.6102327487793840
  0.2452323975778105  0.9366305110929475  0.2402990910766362
  0.7116576865136626  0.9015050417718266  0.2415536293381278
  0.1459677113243915  0.5875333975072785  0.8923318807180654
  0.7761683395339211  0.5281381589975813  0.4876890807986564
  0.9054941422710595  0.8473067574511149  0.8425969306712675
  0.3031579195343175  0.0295391538357005  0.9189998452102179
 
  0.00000000E+00  0.00000000E+00  0.00000000E+00
  0.00000000E+00  0.00000000E+00  0.00000000E+00
  0.00000000E+00  0.00000000E+00  0.00000000E+00
  0.00000000E+00  0.00000000E+00  0.00000000E+00
  0.00000000E+00  0.00000000E+00  0.00000000E+00
  0.00000000E+00  0.00000000E+00  0.00000000E+00
  0.00000000E+00  0.00000000E+00  0.00000000E+00
  0.00000000E+00  0.00000000E+00  0.00000000E+00
  0.00000000E+00  0.00000000E+00  0.00000000E+00
  0.00000000E+00  0.00000000E+00  0.00000000E+00
  0.00000000E+00  0.00000000E+00  0.00000000E+00
  0.00000000E+00  0.00000000E+00  0.00000000E+00
  0.00000000E+00  0.00000000E+00  0.00000000E+00
  0.00000000E+00  0.00000000E+00  0.00000000E+00
  0.00000000E+00  0.00000000E+00  0.00000000E+00
  0.00000000E+00  0.00000000E+00  0.00000000E+00
  0.00000000E+00  0.00000000E+00  0.00000000E+00
  0.00000000E+00  0.00000000E+00  0.00000000E+00
  0.00000000E+00  0.00000000E+00  0.00000000E+00
  0.00000000E+00  0.00000000E+00  0.00000000E+00
