Na1 As1 F6
1.0
   4.4393677711486808    0.0000000000000000    2.5728554725646982
   0.0207513152798049    4.8493561211195546   -0.0351396687328813
   0.0000000000000000    0.0000000000000000    5.1579566001892090
Na As F
1 1 6
direct
   0.4424978792667389    0.9868366122245790    0.1677600294351578 Na
   0.1098828390240669    0.4871068596839905    0.8326082229614258 As
   0.1163258478045464    0.2773503065109253    0.1074056476354599 F
   0.8294805884361267    0.2766887247562408    0.8393890857696533 F
   0.8278234601020813    0.6971687078475952    0.1084575802087785 F
   0.3854404985904694    0.6964555382728578    0.8387182950973511 F
   0.1140328049659729    0.6975867748260499    0.5537546277046204 F
   0.3865105807781219    0.2771954238414765    0.5505414009094238 F
