Li1 Mn1 F4
1.0
   3.5146877765655513    0.0000000000000000   -0.0272220522165293
  -0.0080128601628834    3.5365192713749121   -0.0167267452925440
   0.0000000000000000    0.0000000000000000    4.9919543266296387
Li Mn F
1 1 4
direct
   0.3005056381225586    0.4676150381565094    0.4727358222007751 Li
   0.8008438944816589    0.9678130149841310    0.9729691743850708 Mn
   0.3013454377651215    0.9684271216392518    0.7351912856101990 F
   0.7999467253684998    0.4673054218292236    0.2111293822526932 F
   0.3000522851943970    0.9673305749893188    0.2113419622182846 F
   0.8010070919990540    0.4685013592243195    0.7359434962272644 F
