O  Hf Mg Li O  F  O                                                                                 
 1.000
    3.1219558488339643    0.0000000000000000    0.0000000000000000
   -1.5533157208820525    6.4739522143510602    0.0000000000000000
   -1.5604825133441880    0.9627903973967492    4.9464022705723405
   F    Hf   Li   Mg   O 
    1    1    3    1    4
Direct
    0.9353235363960266    0.0490128323435783    0.2493596374988556      F1
    0.9248477816581724    0.5455190539360044    0.7331618666648865     Hf1
    0.3167519569396972    0.1462750285863876    0.9161092042922974     Li1
    0.1261225044727326    0.3511280417442321    0.3305459320545197     Li2
    0.7272744774818420    0.7615334987640380    0.1264313310384750     Li3
    0.5446274876594545    0.9673846960067749    0.5517575740814209     Mg1
    0.7276984453201293    0.2593784332275391    0.6267403364181519      O1
    0.1210314705967904    0.8542078137397764    0.8163977265357972      O2
    0.3434042930603027    0.6579521298408507    0.4558421373367310      O3
    0.5168644189834596    0.4582618772983550    0.0056121875531971      O4
