Sr1 Mg3 F8                              
   1.00000000000000     
     3.7403771198277931    0.1044640556614835   -0.0017158742870179
     0.1419877000127568    5.2080436008454400   -0.1897178939779537
    -0.0053436485134908   -0.1164653085849144    7.7995653764426729
   Sr   Mg   F 
     1     3     8
Direct
  0.1373323806724393  0.2139561302686684  0.3876211779569312
  0.1653899190335703  0.2257650593752247  0.8964042726876118
  0.6988890489959482  0.7703729252400450  0.0762378421554413
  0.6743873805488507  0.6937988697321481  0.6635941141709552
  0.0084624702058732  0.4428070679985673  0.1110203845762728
  0.6642305173597262  0.9481555972662302  0.3017777269884483
  0.6072750518738130  0.5004927890377623  0.4438505523719728
  0.1646899462189056  0.8630439411509774  0.6216285411756832
  0.0401695704802091  0.3821075354461529  0.6848949224810551
  0.5251533857743674  0.5474579829657903  0.8859671154250435
  0.1774826885701641  0.9379023903910850  0.0666946641907410
  0.6681198020503051  0.0304970352507320  0.8595027565166755
 
  0.00000000E+00  0.00000000E+00  0.00000000E+00
  0.00000000E+00  0.00000000E+00  0.00000000E+00
  0.00000000E+00  0.00000000E+00  0.00000000E+00
  0.00000000E+00  0.00000000E+00  0.00000000E+00
  0.00000000E+00  0.00000000E+00  0.00000000E+00
  0.00000000E+00  0.00000000E+00  0.00000000E+00
  0.00000000E+00  0.00000000E+00  0.00000000E+00
  0.00000000E+00  0.00000000E+00  0.00000000E+00
  0.00000000E+00  0.00000000E+00  0.00000000E+00
  0.00000000E+00  0.00000000E+00  0.00000000E+00
  0.00000000E+00  0.00000000E+00  0.00000000E+00
  0.00000000E+00  0.00000000E+00  0.00000000E+00
