Y2 F6
1.0
   3.7591524124145508    0.0000000000000000    1.3507534265518193
   1.4706265833517604    5.4419127506855336    1.8322199583053591
   0.0000000000000000    0.0000000000000000    5.9216718673706055
Y F
2 6
direct
   0.7869378924369812    0.0734646469354630    0.8079084753990173 Y
   0.2859164178371429    0.5737487673759460    0.3085673451423645 Y
   0.2867029607295989    0.9068108201026918    0.9744217991828918 F
   0.7861881256103517    0.7391965985298157    0.1423022001981735 F
   0.7869518399238586    0.4065276086330414    0.4740736782550812 F
   0.0353549532592296    0.8239759206771851    0.5595417022705079 F
   0.5369587540626526    0.3232108354568481    0.0584944933652878 F
   0.2872075736522675    0.2391996085643768    0.6421639919281006 F
