Rb3 Pr1 F6                              
   1.00000000000000     
     4.0497208316507383   -0.0022006263726190   -0.0001694789804632
     0.0003684495181695    6.6173240226331620    3.6379493834616343
    -0.0016285910998226    0.0542520276626285    7.7030548657408406
   Rb   Pr   F 
     3     1     6
Direct
  0.6163535218655251  0.5030311073036123  0.6176154475025335
  0.6163514342294921  0.0028101802982736  0.6167627172204277
  0.6171356609661677  0.5035901675144782  0.1175019436896988
  0.1168046102603746  0.0027733797183801  0.1168703989483512
  0.1157611026170176  0.1589783608608625  0.3298008224078273
  0.6165284800273532  0.1025579918463014  0.9182151056597351
  0.1147449555593763  0.6340592734811119  0.3279153092418787
  0.6164751922778717  0.9036112729961900  0.3139955641273078
  0.1175937297067012  0.3715260936539775  0.9074309679640473
  0.1171973023373038  0.8463103964324987  0.9053681395279989
 
  0.00000000E+00  0.00000000E+00  0.00000000E+00
  0.00000000E+00  0.00000000E+00  0.00000000E+00
  0.00000000E+00  0.00000000E+00  0.00000000E+00
  0.00000000E+00  0.00000000E+00  0.00000000E+00
  0.00000000E+00  0.00000000E+00  0.00000000E+00
  0.00000000E+00  0.00000000E+00  0.00000000E+00
  0.00000000E+00  0.00000000E+00  0.00000000E+00
  0.00000000E+00  0.00000000E+00  0.00000000E+00
  0.00000000E+00  0.00000000E+00  0.00000000E+00
  0.00000000E+00  0.00000000E+00  0.00000000E+00
