As Cs F 
 1.0000000000000000
     4.9573453446436266    0.0000000000000000    0.0000000000000000
     0.0813315006482074    6.3980465428254005    0.0000000000000000
     4.1054624307209906    0.0777128709880030    8.2110057049975431
 As  Cs  F  
   2   2   8
Cartesian
  3.0868570425956490  4.8843352447063495  0.1031548146987916
  5.7005940332721821  1.7549776952469986  5.7497427946656421
  2.9789730610789436  4.9422008286210097  4.2975264237741611
  0.8598238311252071  1.7034784378189400  1.5584350094855390
  6.4141889995316230  0.1506564614061446  7.0391673183501418
  5.3471485090490996  0.4086065437281907  4.4119059197702706
  6.4422228209321712  3.3610611984042378  7.0345903178899265
  3.4009540485369585  3.5695013456407936  1.4585531820237259
  7.4585215313715763  1.7265746334939744  5.1634917785968568
  5.3863604194370094  3.0664543666092188  4.4036739749733469
  3.4461276368173279  6.2292992273385837  1.4586099540568080
  1.3255151970565699  4.9032835952553180  0.6936154341968916
