K2 Bi1 F7                               
   1.00000000000000     
     5.1891116818660130    0.0072791520400447    2.4022760211009575
     1.0115638671511031    5.0439860633718654   -2.1771008420960922
    -0.2578333163687693    0.0643850584762548    7.4555323282366270
   K    Bi   F 
     2     1     7
Direct
  0.9638604758730976  0.3043143738495322  0.4992421105417484
  0.2396441351309901  0.0027041283406721  0.9310910537707523
  0.6676853340525333  0.5944602298446382  0.0912168883775624
  0.7846445864118571  0.7627180542970305  0.8652377325947721
  0.8272682972634865  0.9016151958110261  0.2380116486821588
  0.0222348982315125  0.3507410710452732  0.8511905891114570
  0.3603237793201375  0.4644994273984236  0.2717437620487527
  0.8126384541979748  0.4437843081309535  0.2518723996554791
  0.3561275142078365  0.8970545360666081  0.2219738638107557
  0.5511626215011467  0.3456118592959661  0.8591934912477365
 
  0.00000000E+00  0.00000000E+00  0.00000000E+00
  0.00000000E+00  0.00000000E+00  0.00000000E+00
  0.00000000E+00  0.00000000E+00  0.00000000E+00
  0.00000000E+00  0.00000000E+00  0.00000000E+00
  0.00000000E+00  0.00000000E+00  0.00000000E+00
  0.00000000E+00  0.00000000E+00  0.00000000E+00
  0.00000000E+00  0.00000000E+00  0.00000000E+00
  0.00000000E+00  0.00000000E+00  0.00000000E+00
  0.00000000E+00  0.00000000E+00  0.00000000E+00
  0.00000000E+00  0.00000000E+00  0.00000000E+00
