Na2 Mg2 F6
1.0
   3.2580168247222905    0.0000000000000000    0.0268146228045230
  -0.0241838815760871    5.2063103709158556   -0.0141857769340269
   0.0000000000000000    0.0000000000000000    7.3592424392700195
Na Mg F
2 2 6
direct
   0.5765598416328430    0.9073829054832458    0.7647076845169067 Na
   0.5621401667594910    0.9953013658523560    0.2900693118572235 Na
   0.0727932900190353    0.4513124525547028    0.5243884921073914 Mg
   0.0688223615288734    0.4499850869178771    0.0206458363682032 Mg
   0.0643639490008354    0.3093858361244202    0.2678040564060211 F
   0.5670694112777710    0.6873735785484314    0.0728076770901680 F
   0.0879076421260834    0.0982061848044395    0.5853773951530457 F
   0.0717838183045387    0.5903431177139282    0.7717314958572388 F
   0.5751629471778870    0.6306698322296143    0.4779596328735352 F
   0.5677409768104553    0.2175488620996475    0.9694054126739502 F
