K3 H2 F5
1.0
   5.3223304748535147    0.0000000000000000   -0.6552109718322764
  -1.7261823613071088    5.8933729698229307   -0.0592785552144047
   0.0000000000000000    0.0000000000000000    5.5701427459716797
K H F
3 2 5
direct
   0.6425337195396423    0.6496230959892273    0.5075833797454834 K
   0.1417435258626938    0.1492755562067032    0.5085411071777344 K
   0.1435448676347733    0.6516541242599487    0.0086183715611696 K
   0.7789772152900696    0.9634215235710143    0.0229955278337002 H
   0.5080109238624573    0.3373065292835236    0.9938620924949646 H
   0.8853150010108948    0.9565524458885193    0.8620182871818542 F
   0.4015733897686005    0.3417082726955413    0.1542162299156189 F
   0.6867765784263611    0.9555327892303466    0.1964279562234879 F
   0.5970625877380371    0.3422441482543945    0.8191781640052795 F
   0.1452625393867493    0.6493695974349976    0.5090338587760925 F
