K2 Na1 Yb1 F6
1.0
   5.3711709976196289    0.0000000000000000    3.1145117282867436
   1.7977298444538545    5.0708407076470055    3.1167840957641593
   0.0000000000000000    0.0000000000000000    6.2081956863403320
K Na Yb F
2 1 1 6
direct
   0.6493012309074403    0.6664763689041138    0.8630875349044800 K
   0.1488282084465027    0.1665895581245422    0.3627702593803406 K
   0.8993300795555115    0.9164986610412599    0.1129603236913681 Na
   0.3987953066825867    0.4162030220031738    0.6130146384239197 Yb
   0.6408840417861938    0.1741487234830856    0.3704558312892914 F
   0.6409727334976196    0.6585988998413086    0.3702918291091919 F
   0.1571412682533264    0.1741959899663925    0.8549876809120178 F
   0.1567301154136657    0.6585565805435182    0.3704297244548796 F
   0.6410086154937744    0.1739266365766525    0.8554145693778992 F
   0.1568301320075989    0.6584166884422302    0.8551140427589417 F
