Li5 Mn2 F9                              
   1.00000000000000     
     4.5554081905220087    0.1585946229738412   -2.5168855759609534
    -0.8304953760957641    5.0051623647621568   -0.1750165278966198
    -0.2116938814747619   -0.0751698151996218    6.9725149943088791
   Li   Mn   F 
     5     2     9
Direct
  0.6391547112103843  0.4445563759064036  0.0431083443720423
  0.2750923506062025  0.2420639680113219  0.6078343385405071
  0.6201167198457390  0.7517681944664492  0.6982993761462836
  0.2567353623979471  0.5493682517937177  0.2631173762986458
  0.9500266689662908  0.9972888738522048  0.1527367499350636
  0.2854124349271600  0.8943206886161478  0.9383547927001050
  0.6107837786051821  0.1000304479065900  0.3670829521967788
  0.5569481223840717  0.4109556252811852  0.5200827389304062
  0.9694774465619657  0.6926077288669976 -0.0074164069938263
  0.9487583220749308  0.9979497364227985  0.6525192478481912
  0.3145805785929805  0.8942818055083193  0.4252040318877782
  0.3381400585592235  0.5828435220849705  0.7857487148686694
  0.6327737274350819  0.7689210320887809  0.2070159122280588
  0.5825782681898256  0.0986864319976914  0.8809966635682427
  0.9262235358005583  0.3019701386852122  0.3127153199974480
  0.2615191359093361  0.2250327187486374  0.0986507205018577
 
  0.00000000E+00  0.00000000E+00  0.00000000E+00
  0.00000000E+00  0.00000000E+00  0.00000000E+00
  0.00000000E+00  0.00000000E+00  0.00000000E+00
  0.00000000E+00  0.00000000E+00  0.00000000E+00
  0.00000000E+00  0.00000000E+00  0.00000000E+00
  0.00000000E+00  0.00000000E+00  0.00000000E+00
  0.00000000E+00  0.00000000E+00  0.00000000E+00
  0.00000000E+00  0.00000000E+00  0.00000000E+00
  0.00000000E+00  0.00000000E+00  0.00000000E+00
  0.00000000E+00  0.00000000E+00  0.00000000E+00
  0.00000000E+00  0.00000000E+00  0.00000000E+00
  0.00000000E+00  0.00000000E+00  0.00000000E+00
  0.00000000E+00  0.00000000E+00  0.00000000E+00
  0.00000000E+00  0.00000000E+00  0.00000000E+00
  0.00000000E+00  0.00000000E+00  0.00000000E+00
  0.00000000E+00  0.00000000E+00  0.00000000E+00
