Ca2 Mn2 F8
1.0
   5.4970378875732422    0.0000000000000000    0.0033869952894755
   0.1856098286645887    5.4872658484489643    0.0094357999041678
   0.0000000000000000    0.0000000000000000    5.4835166931152344
Ca Mn F
2 2 8
direct
   0.1958166807889938    0.4264693856239319    0.4934989511966705 Ca
   0.1956391483545303    0.9267987608909606    0.9919478893280028 Ca
   0.6956062912940979    0.4269997775554657    0.9927878975868224 Mn
   0.6952828168869019    0.9268656373023988    0.4929318726062774 Mn
   0.3690164983272552    0.5773434638977051    0.1523901224136353 F
   0.3686700165271759    0.0774571001529694    0.3332648277282715 F
   0.8571392893791199    0.2453345060348511    0.3194110691547394 F
   0.0226254444569349    0.7772790193557739    0.6521898508071899 F
   0.5329117178916931    0.1108484268188477    0.8178435564041138 F
   0.8565848469734192    0.7454555034637451    0.1662230640649796 F
   0.0215448383241892    0.2758795619010925    0.8324542641639708 F
   0.5348149538040161    0.6094104647636414    0.6671423912048340 F
