Cs3 Be2 F7                              
   1.00000000000000     
     6.2200326532988139    0.0009487415598999    1.9395419841735899
     2.3511392498305721    5.1781884706346428    2.5528528485729103
    -0.0074139741539117   -0.0690975137902493    7.8339050493554225
   Cs   Be   F 
     3     2     7
Direct
  0.7125498267041737  0.7370893413680852  0.1685239235597773
  0.3041154931998080  0.1359102886338351  0.7672641107785053
  0.0089099524413178  0.9361756121566497  0.4686776261410329
  0.6661601176853582  0.4564210079415688  0.7673565460058528
  0.3500040924061392  0.4141708773161677  0.1705830688555583
  0.8205481445882753  0.5896010564017005  0.7592015745404165
  0.1967413155000303  0.6961254824035117  0.1760610376040556
  0.8192355832691740  0.1735838450563216  0.7638709408554540
  0.4990905706608290  0.6168368603079265  0.6121136091013752
  0.5155699077452637  0.2498977693918868  0.3266574371316314
  0.5095875018115836  0.4366782501867812  0.9696404793058244
  0.1954237032792668  0.2840704846089961  0.1738833620361968
 
  0.00000000E+00  0.00000000E+00  0.00000000E+00
  0.00000000E+00  0.00000000E+00  0.00000000E+00
  0.00000000E+00  0.00000000E+00  0.00000000E+00
  0.00000000E+00  0.00000000E+00  0.00000000E+00
  0.00000000E+00  0.00000000E+00  0.00000000E+00
  0.00000000E+00  0.00000000E+00  0.00000000E+00
  0.00000000E+00  0.00000000E+00  0.00000000E+00
  0.00000000E+00  0.00000000E+00  0.00000000E+00
  0.00000000E+00  0.00000000E+00  0.00000000E+00
  0.00000000E+00  0.00000000E+00  0.00000000E+00
  0.00000000E+00  0.00000000E+00  0.00000000E+00
  0.00000000E+00  0.00000000E+00  0.00000000E+00
