Li4 Fe1 F7                              
   1.00000000000000     
     5.3075891454480120   -0.0220881797489974   -1.0793237903070392
    -1.0100064548698371    5.1615080979847834   -0.3299600022227786
     0.1884576622725087   -0.0445385653262571    5.0107518511394469
   Li   Fe   F 
     4     1     7
Direct
  0.5811913565424376  0.9348566538155499  0.5891239422213519
  0.9599417202131771  0.8291184844409604  0.4136014463223225
  0.7022900979374821  0.3243500990909267  0.1693076648195313
  0.1720443896037614  0.3182704825434267  0.4779384300190303
  0.3074981396459758  0.7581043964611947  0.0484341494780584
  0.5390557836212999  0.0192415362960127  0.9340276466106563
  0.3642762405807162  0.5215151261154147  0.7817277747475867
  0.0404286454790504  0.8308775042901151  0.8106539518638447
  0.5783679252365722  0.6512658447164558  0.2932078385315254
  0.0617257956849224  0.5266894246832237  0.1998959700640399
  0.8378646601269949  0.1493099114631088  0.4602249623815034
  0.2842116538556995  0.0071216601962175  0.3435314594637008
 
  0.00000000E+00  0.00000000E+00  0.00000000E+00
  0.00000000E+00  0.00000000E+00  0.00000000E+00
  0.00000000E+00  0.00000000E+00  0.00000000E+00
  0.00000000E+00  0.00000000E+00  0.00000000E+00
  0.00000000E+00  0.00000000E+00  0.00000000E+00
  0.00000000E+00  0.00000000E+00  0.00000000E+00
  0.00000000E+00  0.00000000E+00  0.00000000E+00
  0.00000000E+00  0.00000000E+00  0.00000000E+00
  0.00000000E+00  0.00000000E+00  0.00000000E+00
  0.00000000E+00  0.00000000E+00  0.00000000E+00
  0.00000000E+00  0.00000000E+00  0.00000000E+00
  0.00000000E+00  0.00000000E+00  0.00000000E+00
