Li4 Nb1 O1 F6
1.0
   5.1176571846008301    0.0000000000000000    0.7448225021362307
  -1.0251649640175149    4.9804166856458227    0.8572579622268675
   0.0000000000000000    0.0000000000000000    5.2887668609619141
Li Nb O F
4 1 1 6
direct
   0.4028324186801910    0.3266050815582275    0.5296716094017029 Li
   0.6564034819602966    0.8624966740608215    0.4453894793987274 Li
   0.0179996490478515    0.5193960666656493    0.2862344980239868 Li
   0.1418610662221909    0.7686048150062561    0.7175729870796204 Li
   0.7908576130867004    0.1836002618074417    0.9220672249794006 Nb
   0.6427559852600098    0.2355391085147858    0.2254724055528641 O
   0.4861713647842407    0.9995995759963988    0.7650139927864075 F
   0.7664593458175659    0.5199904441833496    0.6474695801734924 F
   0.0229670405387878    0.1002046614885330    0.5746576189994812 F
   0.1489862203598022    0.4164398014545441    0.9424508213996887 F
   0.3216434717178345    0.6580520272254944    0.4256744682788849 F
   0.8981007337570190    0.8394086956977843    0.0848551020026207 F
