Li4 Mn1 F6                              
   1.00000000000000     
     2.7461327473033772    0.0792405064654764    0.1020324238728950
     0.1342179972905000    5.1595030949603258   -1.1353706575552949
     0.2267329465736923   -0.2458583766307166    7.7134636415880680
   Li   Mn   F 
     4     1     6
Direct
  0.9140597854687180 -0.0171090380164803  0.7997284663975636
  0.9618486247775778  0.6045360864582996  0.4710181356713510
  0.4548785082632213  0.1389928854490121  0.5346503038585509
  0.3001852110078844  0.4854693858684944  0.8698784991879371
  0.5633234883113105  0.0388265902046392  0.1664547389848544
  0.4403034471000695  0.8245183055499823  0.6238502146975147
  0.7340452226118812  0.7343867645266127  0.9652937787757310
  0.4486359484350886  0.2034477498251586  0.9730724628097667
  0.9148942491792069  0.3078026343558243  0.6824564877492321
  0.4898261365247098  0.3593585615742880  0.3619364920394549
  0.0331511567798802  0.9048806901430709  0.3126281761391414
 
  0.00000000E+00  0.00000000E+00  0.00000000E+00
  0.00000000E+00  0.00000000E+00  0.00000000E+00
  0.00000000E+00  0.00000000E+00  0.00000000E+00
  0.00000000E+00  0.00000000E+00  0.00000000E+00
  0.00000000E+00  0.00000000E+00  0.00000000E+00
  0.00000000E+00  0.00000000E+00  0.00000000E+00
  0.00000000E+00  0.00000000E+00  0.00000000E+00
  0.00000000E+00  0.00000000E+00  0.00000000E+00
  0.00000000E+00  0.00000000E+00  0.00000000E+00
  0.00000000E+00  0.00000000E+00  0.00000000E+00
  0.00000000E+00  0.00000000E+00  0.00000000E+00
