K1 W1 F6
1.0
   4.8794264793395996    0.0000000000000000   -0.6234773993492135
  -0.7161915927100329    4.8419824541990835   -0.6173721551895137
   0.0000000000000000    0.0000000000000000    4.9444375038146973
K W F
1 1 6
direct
   0.5577168464660645    0.2442774325609207    0.5045486688613892 K
   0.0574303641915321    0.7443388104438782    0.0044324430637062 W
   0.2699905335903168    0.6697084903717041    0.3306192159652710 F
   0.8448767662048340    0.8189229965209961    0.6784039735794067 F
   0.3834421336650848    0.9576999545097351    0.9287588000297546 F
   0.9823398590087891    0.0694678574800491    0.2168749719858170 F
   0.7319855093955994    0.5313696861267090    0.0797030329704285 F
   0.1331649720668793    0.4184260070323944    0.7919358015060425 F
