Pr1 F4
1.0
   3.9560348987579350    0.0000000000000000   -0.0127649093046785
  -0.0263009389374368    4.4658024693181444   -1.4846578836441036
   0.0000000000000000    0.0000000000000000    4.7434010505676270
Pr F
1 4
direct
   0.2905762791633606    0.0004184246063232    0.5564720630645752 Pr
   0.7898961305618286    0.7689815759658813    0.3304589390754700 F
   0.7917765974998474    0.2257682085037231    0.7869805693626404 F
   0.2905573248863220    0.4988616108894349    0.5597219467163086 F
   0.2910045981407166    0.9988505244255066    0.0585670061409473 F
