Hf4 F16                                 
   1.00000000000000     
     5.7620543190183371    0.0230777510407527   -0.3704626181060059
    -0.0315760350096440    5.3834317242333265    0.7017085866951495
     0.0142571587347668    0.0283150728765600    7.8230516872766778
   Hf   F 
     4    16
Direct
  0.3837617668022878  0.9491025002489030  0.0151615685542044
  0.5941906777857093  0.0463474876616187  0.5176410087590885
  0.0871023763454844  0.5888373523471024  0.3569924500482107
  0.8812506825581391  0.4777163764384219  0.8592881848545373
  0.6741091125170997  0.7622027020311979  0.9755011867299985
  0.1274086431907896  0.7479049578044067  0.8917092882798393
  0.6682880287260259  0.6788115175954261  0.6785306641383829
  0.6112441630870505  0.2740778593298958  0.9564501428349313
  0.8512287810020693  0.8505014638494259  0.4202033383531208
  0.3344267371342640  0.7982864533729329  0.4709270250174276
  0.3157214515804636  0.2970159526756225  0.4446110551385957
  0.0660226115175526  0.5211767302803041  0.6338988932061417
  0.1572289939539168  0.2406667472731739  0.9295193199130746
  0.7887620755782395  0.3507175859540085  0.4107033189129949
  0.9580336597016285  0.4577993476047215  0.1363620899463327
  0.4062839853150864  0.0304684534957472  0.7357432477198682
  0.3748915559363032  0.6128137677200931  0.1857469112377427
  0.5231471074607775  0.0617502147792462  0.2378249694715946
  0.8131610636201169  0.1599031267195247  0.7107745974335247
  0.0939451060848757  0.9182101153345347  0.1798998826133533
 
  0.00000000E+00  0.00000000E+00  0.00000000E+00
  0.00000000E+00  0.00000000E+00  0.00000000E+00
  0.00000000E+00  0.00000000E+00  0.00000000E+00
  0.00000000E+00  0.00000000E+00  0.00000000E+00
  0.00000000E+00  0.00000000E+00  0.00000000E+00
  0.00000000E+00  0.00000000E+00  0.00000000E+00
  0.00000000E+00  0.00000000E+00  0.00000000E+00
  0.00000000E+00  0.00000000E+00  0.00000000E+00
  0.00000000E+00  0.00000000E+00  0.00000000E+00
  0.00000000E+00  0.00000000E+00  0.00000000E+00
  0.00000000E+00  0.00000000E+00  0.00000000E+00
  0.00000000E+00  0.00000000E+00  0.00000000E+00
  0.00000000E+00  0.00000000E+00  0.00000000E+00
  0.00000000E+00  0.00000000E+00  0.00000000E+00
  0.00000000E+00  0.00000000E+00  0.00000000E+00
  0.00000000E+00  0.00000000E+00  0.00000000E+00
  0.00000000E+00  0.00000000E+00  0.00000000E+00
  0.00000000E+00  0.00000000E+00  0.00000000E+00
  0.00000000E+00  0.00000000E+00  0.00000000E+00
  0.00000000E+00  0.00000000E+00  0.00000000E+00
