Ca3 Mn1 F8                              
   1.00000000000000     
     4.0137693212270413    0.1468044363010005    0.0083891488648547
     0.2228028978120817    5.3316105746962226    0.0135710717571802
    -0.0058715666064663   -0.0208089975732473    7.3875295995929120
   Ca   Mn   F 
     3     1     8
Direct
  0.1600942336432046  0.7747336075464856  0.8585890425745301
  0.6598716922855650  0.2745588422861224  0.5976411994737613
  0.1593044381531260  0.7753085978570176  0.3363615420546904
  0.6595418634323547  0.2752079434462263  0.0975153382977231
  0.6157979168727835  0.0352086409764275  0.3270312681349903
  0.1725082527343927  0.5256954908570842  0.5971373111515293
  0.2387066689984067  0.5036980723381312  0.0976319255582675
  0.1467118509136709  0.0228579058244475  0.5978130722684240
  0.7044636435408260  0.5138943251017015  0.8674556553604358
  0.0825606833905698  0.0490660130506557  0.0969746887075630
  0.7040463970105068  0.5142454697059896  0.3284466541325242
  0.6165036575856891  0.0348365612500647  0.8667912819589472
 
  0.00000000E+00  0.00000000E+00  0.00000000E+00
  0.00000000E+00  0.00000000E+00  0.00000000E+00
  0.00000000E+00  0.00000000E+00  0.00000000E+00
  0.00000000E+00  0.00000000E+00  0.00000000E+00
  0.00000000E+00  0.00000000E+00  0.00000000E+00
  0.00000000E+00  0.00000000E+00  0.00000000E+00
  0.00000000E+00  0.00000000E+00  0.00000000E+00
  0.00000000E+00  0.00000000E+00  0.00000000E+00
  0.00000000E+00  0.00000000E+00  0.00000000E+00
  0.00000000E+00  0.00000000E+00  0.00000000E+00
  0.00000000E+00  0.00000000E+00  0.00000000E+00
  0.00000000E+00  0.00000000E+00  0.00000000E+00
