Li1 Mg1 Mn1 F5                          
   1.00000000000000     
     2.8924344165483156   -0.0016587038999351   -0.7185691571560709
    -0.4351468894463711    4.4317806122079553   -1.7504747105689500
     0.1276231280391011   -0.1009233846957411    6.7306844416055709
   Li   Mg   Mn   F 
     1     1     1     5
Direct
  0.7484080872952276  0.1599858210677446  0.1418919796722860
  0.0941902056509665  0.4761484214093809  0.8275374650766154
  0.4020697668985600  0.7843928359108344  0.4444990511811363
  0.8557760883701078  0.9821362513016592  0.3530111772275193
  0.2482989967304629  0.4113818868717528  0.1380345296363280
  0.5441613098375971  0.1731773530113452  0.7272464361028109
  0.9554773846163445  0.5846152346986497  0.5509365230633472
  0.6469778868509050  0.7591568464501837  0.9313777897864205
 
  0.00000000E+00  0.00000000E+00  0.00000000E+00
  0.00000000E+00  0.00000000E+00  0.00000000E+00
  0.00000000E+00  0.00000000E+00  0.00000000E+00
  0.00000000E+00  0.00000000E+00  0.00000000E+00
  0.00000000E+00  0.00000000E+00  0.00000000E+00
  0.00000000E+00  0.00000000E+00  0.00000000E+00
  0.00000000E+00  0.00000000E+00  0.00000000E+00
  0.00000000E+00  0.00000000E+00  0.00000000E+00
