Al2 F6                                  
   1.00000000000000     
     4.6458623503653937    0.0070742943853556   -0.0025552530147840
    -2.3293818850916157    4.0191853087433795   -0.0030977973950948
     0.0016332842101331    0.0041367461630396    4.3477162801315306
   Al   F 
     2     6
Direct
  0.6346718833282328  0.6321640927170629  0.3163910437907593
  0.9680752082339327  0.2989727817329006  0.8162733614192677
  0.9383450311735120  0.9653307667781342  0.0659490811237824
  0.9385944378068017  0.6032484298576442  0.5662646762920410
  0.6642409862033357  0.9658735604363892  0.5657845711342132
  0.3013882515965473  0.3284680267682035  0.5664481416471363
  0.3013946655495364  0.6027776700636590  0.0665032090786943
  0.6639611874714746  0.3281771230563004  0.0662914358936489
 
  0.00000000E+00  0.00000000E+00  0.00000000E+00
  0.00000000E+00  0.00000000E+00  0.00000000E+00
  0.00000000E+00  0.00000000E+00  0.00000000E+00
  0.00000000E+00  0.00000000E+00  0.00000000E+00
  0.00000000E+00  0.00000000E+00  0.00000000E+00
  0.00000000E+00  0.00000000E+00  0.00000000E+00
  0.00000000E+00  0.00000000E+00  0.00000000E+00
  0.00000000E+00  0.00000000E+00  0.00000000E+00
