Rb1 H1 F2
1.0
   3.6380045413970947    0.0000000000000000   -0.0000548031966907
   0.0006511555319186    3.6451470270298172   -0.0035855118185280
   0.0000000000000000    0.0000000000000000    5.1516208648681641
Rb H F
1 1 2
direct
   0.2034255117177964    0.0061598983593285    0.9052913784980774 Rb
   0.7041149735450745    0.5060434341430664    0.4061806797981262 H
   0.7029323577880859    0.5064491629600525    0.6310703754425049 F
   0.7031103372573853    0.5061714649200439    0.1813176870346069 F
