W1 F6                                   
   1.00000000000000     
     5.0679903048674237    0.0223119791474341    0.9196674967349597
     1.3701802976720669    4.2905345792802736    2.6244647261609924
     0.0124573908254880    0.0031577876062634    5.1975169681395199
   W    F 
     1     6
Direct
  0.6994349807579647  0.6881633773421295  0.3499233616032948
  0.9246459490064206  0.3199501519332870  0.6434945097304023
  0.4812385611718212  0.4674030203506676  0.3518004815222481
  0.4735054197069202  0.0569070868319392  0.0577769677839293
  0.9183905420212258  0.9079593703237194  0.3485188457866688
  0.9248189493686718  0.6148810587406363  0.0553400905091824
  0.4745094286001386  0.7623177594359455  0.6444038846117157
 
  0.00000000E+00  0.00000000E+00  0.00000000E+00
  0.00000000E+00  0.00000000E+00  0.00000000E+00
  0.00000000E+00  0.00000000E+00  0.00000000E+00
  0.00000000E+00  0.00000000E+00  0.00000000E+00
  0.00000000E+00  0.00000000E+00  0.00000000E+00
  0.00000000E+00  0.00000000E+00  0.00000000E+00
  0.00000000E+00  0.00000000E+00  0.00000000E+00
