F  Li Sc Zr
 1.0000000000000000
     5.1597467708595959    0.0000000000000000    0.0000000000000000
    -0.0215854851810512    5.0837859115598922    0.0000000000000000
    -0.0149152169656274   -0.0392549338763810    5.1567074917039024
 F   Li  Sc  Zr 
   8   2   1   1
Cartesian
  1.5808850233698699  2.9834270175492312  2.5586664849703711
  0.9707468908937560  2.9460683949494260  5.1186432614716573
  1.5872265238094119  0.2258498114624976  4.5518783963793279
  1.0044013349399359  0.2565271269600959  1.9888992910781409
  4.1778391558694654  0.2250721186299324  5.1461504700730467
  3.5921194843570778  0.2476151994159163  2.5844204909228408
  3.5581736141319715  2.9690534568487337  4.5482681021447222
  4.1683639098461542  2.9800505414203324  1.9857764757006839
  0.0171519179658941  1.6271114332229273  0.9900294479068653
  2.5669106897346414  1.6028861763092930  3.5602572654574867
 -0.0121477411798153  4.1480515371740490  3.5604801041532204
  2.5788233576605251  4.1665004240210113  0.9827426225563678
