Li3 Fe2 F9
1.0
   4.9396848678588867    0.0000000000000000    0.7247428894042968
   0.6439554722690305    6.3762684765879625    1.9236243963241582
   0.0000000000000000    0.0000000000000000    5.2000002861022949
Li Fe F
3 2 9
direct
   0.9861555695533752    0.7000811696052551    0.4779089391231537 Li
   0.4501324594020844    0.0724149569869041    0.4063627123832703 Li
   0.0945752039551735    0.4547185599803925    0.0465012341737747 Li
   0.8898968696594238    0.1790772080421448    0.6756083965301514 Fe
   0.5252730250358582    0.8043510913848877    0.0148831978440284 Fe
   0.9812720417976379    0.4296830594539643    0.7325484156608582 F
   0.6663504242897034    0.0732200890779495    0.0339677594602108 F
   0.2222809046506882    0.9927015900611879    0.8150687217712402 F
   0.3307634592056274    0.8004049658775331    0.3505256474018097 F
   0.5812841653823853    0.2949076890945435    0.5079057812690735 F
   0.4236464798450470    0.5740877389907837    0.9524626135826112 F
   0.7539392113685608    0.8953714966773987    0.6464186906814575 F
   0.8534554839134216    0.6666666666666666    0.1689248234033584 F
   0.1029527485370636    0.2141906023025513    0.3300176858901978 F
