F  K  Li Na
 1.0000000000000000
     6.0646458786132280    0.0000000000000000    0.0000000000000000
    -3.1822757544412235    5.1782704526321979    0.0000000000000000
    -0.8678699501977267   -1.5545258461461797    5.5847749848287593
 F   K   Li  Na 
   6   2   1   3
Cartesian
  4.5964193831351627 -0.8139296227989451  5.4877934883975295
  3.6604133827861438  0.9649211082537539  2.6353535442548321
  0.6101404509697328  2.8804892258583106  2.5789557658977365
  1.9582199066031745  1.2631628570037470  5.2549782451301583
 -2.5532063123330726  4.0446670211053384  2.8083583384845570
 -1.4171882652550580  2.7570455310344686  5.4246597465644015
 -0.3299205158433663  0.9766363157549875  4.0299662838879602
  1.6023283023315702  0.9114175245487847  1.2358241887465831
  2.6700311243355110  2.6870445340823363  4.0262976296185160
  2.7679495707989079 -0.7617634951797874  4.0298061693154530
  1.5099760387110435  4.3606364747842417  1.2365168257460522
 -1.5049377808065858  2.6542413304891639  1.2405729506233940
