K2 Y4 F14                               
   1.00000000000000     
     7.0466683636168579    0.0466531537585170   -0.0468340131375556
     3.6752404620909442    5.9938510901436404   -0.0274220120640258
     0.0053433095214766   -0.0166681175387156    7.0175453579025655
   K    Y    F 
     2     4    14
Direct
  0.0389537551900613  0.1006415846471920  0.4203497622658255
  0.6846636847114127  0.4572781359643803  0.9202631009458692
  0.2971391512641717  0.4708374360838642  0.4206894570126934
  0.0576888676973670  0.7140035921173502  0.9202961463549885
  0.4275831273825657  0.0863758954089162  0.9228254996788350
  0.6668598137673821  0.8429197577185116  0.4226484662748915
  0.6916353729805185  0.7742495756912050  0.1054199887124990
  0.3724401931857239  0.4415537001532702  0.1030607404811793
  0.7591550981203651  0.0631607797816180  0.9239200336776967
  0.0306238009048409  0.7852916979209534  0.6034949834134905
  0.0774083570366473  0.3842034126473636  0.9228226196647471
  0.0301582518557804  0.7825327112382875  0.2384255321740054
  0.3545984572126583  0.1109298968313678  0.6051191174362546
  0.2550606245292911  0.8870370694958689  0.9223251712111816
  0.3525607355152245  0.1162222744787153  0.2411001443142016
  0.6999004057357906  0.7718140674266808  0.7399339409411121
  0.4712354887727495  0.6680668990817511  0.4220557035104400
  0.3691846556571740  0.4428465015471650  0.7394960241283925
  0.9662094154215426  0.4940283983908745  0.4225825825456166
  0.6468435334710392  0.1722729712733765  0.4244049405797757
 
  0.00000000E+00  0.00000000E+00  0.00000000E+00
  0.00000000E+00  0.00000000E+00  0.00000000E+00
  0.00000000E+00  0.00000000E+00  0.00000000E+00
  0.00000000E+00  0.00000000E+00  0.00000000E+00
  0.00000000E+00  0.00000000E+00  0.00000000E+00
  0.00000000E+00  0.00000000E+00  0.00000000E+00
  0.00000000E+00  0.00000000E+00  0.00000000E+00
  0.00000000E+00  0.00000000E+00  0.00000000E+00
  0.00000000E+00  0.00000000E+00  0.00000000E+00
  0.00000000E+00  0.00000000E+00  0.00000000E+00
  0.00000000E+00  0.00000000E+00  0.00000000E+00
  0.00000000E+00  0.00000000E+00  0.00000000E+00
  0.00000000E+00  0.00000000E+00  0.00000000E+00
  0.00000000E+00  0.00000000E+00  0.00000000E+00
  0.00000000E+00  0.00000000E+00  0.00000000E+00
  0.00000000E+00  0.00000000E+00  0.00000000E+00
  0.00000000E+00  0.00000000E+00  0.00000000E+00
  0.00000000E+00  0.00000000E+00  0.00000000E+00
  0.00000000E+00  0.00000000E+00  0.00000000E+00
  0.00000000E+00  0.00000000E+00  0.00000000E+00
