F  K  Rb
 1.0000000000000000
     3.9864977831478510    0.0000000000000000    0.0000000000000000
     0.0032851199267693    3.9877205721496853    0.0000000000000000
    -1.9965588612586402   -1.9842573958549814    8.4989784268794750
 F   K   Rb 
   3   1   2
Cartesian
  0.2468127793830484 -0.0404561306935973  2.5026742710940808
  2.2442258005235063  1.9590651367977503  5.2559575299119361
  0.2429270268132425 -0.0343803662765688  8.2438674752255903
  2.2418556433603611  1.9543344170439447  2.5002687826590484
 -1.7443584164406729  1.9617999892488820  8.1911802623849113
  0.2479506941218376 -0.0334171433772146  5.3088792886398251
