Na3 Nd1 F6
1.0
   4.5486769676208487    0.0000000000000000    0.4925753176212316
  -0.0961935012603764    4.5207118854186028   -0.4866208136081696
   0.0000000000000000    0.0000000000000000    7.0887374877929688
Na Nd F
3 1 6
direct
   0.1037847548723221    0.3356613814830780    0.5512229204177856 Na
   0.0919222608208656    0.8646876811981201    0.8958531022071839 Na
   0.6215475201606750    0.8540520668029785    0.5543848872184753 Na
   0.6625808477401733    0.2944962382316589    0.1403965950012207 Nd
   0.7117156982421875    0.8010936975479126    0.2166348397731781 F
   0.0015742343384773    0.3850564956665039    0.8787959218025209 F
   0.1561795473098755    0.2488668262958527    0.2135858684778214 F
   0.1173519045114517    0.8408042788505554    0.5805822610855103 F
   0.5703742504119873    0.9459444284439086    0.8827325701713563 F
   0.6150547862052917    0.3415392935276031    0.4779563546180726 F
