Cs1 Bi1 F4
1.0
   4.0097956657409659    0.0000000000000000   -0.0129799656569954
  -0.0359874662068787    4.0091492078289255   -0.0182186868041755
   0.0000000000000000    0.0000000000000000    6.9194211959838867
Cs Bi F
1 1 4
direct
   0.9292912483215332    0.8548930287361144    0.0697631090879440 Cs
   0.4290047585964203    0.3561413884162903    0.5692066550254822 Bi
   0.9289453625679016    0.3548043370246887    0.3838980793952941 F
   0.4293843805789948    0.8550493121147156    0.3842232823371887 F
   0.9293096065521240    0.3549624085426330    0.7542454004287719 F
   0.4291684627532959    0.8563132286071777    0.7540587186813353 F
