Cs3 Mo1 F6                              
   1.00000000000000     
     5.9909707182102521   -0.0035215468722898    3.4695401710717908
     2.0026350947950116    5.6418171720991328    3.4667003969365151
     0.0008139538620557   -0.0002221089070486    6.9175287799810379
   Cs   Mo   F 
     3     1     6
Direct
  0.4440137038879803  0.6414428592933309  0.7660662664089231
  0.6939543818250894  0.8915350876004731  0.0158319251465154
  0.1939624444073137  0.3916394480603724  0.5158646442818035
  0.9438829827094418  0.1411547570631252  0.2658144999594262
  0.7328379611194584  0.9302477160921244  0.4765329460303861
  0.7327790932882431  0.3517903808700620  0.0548704805030926
  0.1549063816354339  0.3522169727715256  0.0545891523521639
  0.7327495453791422  0.3524060684261454  0.4767291421106504
  0.1548619129753677  0.9299634384929399  0.4768997111592164
  0.1548525684528808  0.9300063780193544  0.0548150443141128
 
  0.00000000E+00  0.00000000E+00  0.00000000E+00
  0.00000000E+00  0.00000000E+00  0.00000000E+00
  0.00000000E+00  0.00000000E+00  0.00000000E+00
  0.00000000E+00  0.00000000E+00  0.00000000E+00
  0.00000000E+00  0.00000000E+00  0.00000000E+00
  0.00000000E+00  0.00000000E+00  0.00000000E+00
  0.00000000E+00  0.00000000E+00  0.00000000E+00
  0.00000000E+00  0.00000000E+00  0.00000000E+00
  0.00000000E+00  0.00000000E+00  0.00000000E+00
  0.00000000E+00  0.00000000E+00  0.00000000E+00
