K1 Mg1 H1 F4
1.0
   3.1638514995574951    0.0000000000000000   -0.0045999907888471
  -0.0052673437060510    5.5687731627245798   -0.1193561255931869
   0.0000000000000000    0.0000000000000000    5.3438444137573242
K Mg H F
1 1 1 4
direct
   0.2300385236740112    0.1319055408239365    0.6313095688819885 K
   0.7296802997589111    0.6302040219306946    0.1327420622110367 Mg
   0.7291231155395508    0.6309463977813721    0.6311005353927612 H
   0.2298952192068100    0.8385964632034302    0.2445520758628845 F
   0.7313573360443115    0.4778922498226166    0.4826364815235137 F
   0.7308430671691895    0.7835906147956848    0.7805371284484863 F
   0.2300211191177368    0.4228648245334625    0.0191352162510157 F
