Rb1 Li2 Cr1 F6
1.0
   5.0593724250793457    0.0000000000000000   -1.2820920944213861
  -2.5311406379185550    4.4817549215028398    0.5615565180778490
   0.0000000000000000    0.0000000000000000    6.7045454978942871
Rb Li Cr F
1 2 1 6
direct
   0.5461912751197815    0.7072865366935730    0.5540613532066345 Rb
   0.3703411221504211    0.6884138584136963    0.0410921908915043 Li
   0.0536384508013725    0.0246314331889153    0.0646134540438652 Li
   0.7153827548027039    0.3552751839160919    0.0611043833196163 Cr
   0.3501442968845367    0.3547513484954835    0.8970713019371033 F
   0.6642806529998779    0.0358825959265232    0.8996441364288330 F
   0.9726461768150328    0.6673643589019775    0.8967192173004150 F
   0.4522941410541534    0.0419799275696278    0.2193685322999954 F
   0.0850736051797867    0.3629265427589417    0.2211002409458160 F
   0.7657222747802734    0.6723544597625732    0.2236492484807968 F
