K1 Rb6 Nd1 F10                          
   1.00000000000000     
     7.1645742645493371    0.1891063179888751   -0.3966392508980699
     2.1399556325926037    6.5920107094819755    1.2997939785562582
     0.3243022234526003    0.0465524712592263    9.2273493535196653
   K    Rb   Nd   F 
     1     6     1    10
Direct
  0.0291238616411000  0.4914309451401926  0.0589362437429039
  0.5617809543385379  0.2841665650789437  0.4073809021758183
  0.0587368523611814  0.4833592774187453  0.4980255055317900
  0.0453498849251120 -0.0236496185936543  0.2893740213576549
  0.4818011507736935  0.2373148635881444  0.8802424358645468
  0.5347439890301272  0.7560281700175553  0.1437413019184069
  0.0028867003262662  0.0018311089657688  0.8516595792265593
  0.5494219963091598  0.7469749281513863  0.6697038163347084
  0.7609305800891784  0.8537773751931531  0.5147998708012445
  0.2502302439668002  0.5684959476640815  0.2310141971211098
  0.7457881132034201  0.4072410876111787  0.6906128628268117
  0.3417021780025852  0.6622877054431976  0.8400611973738075
  0.3551268513435097  0.0903294408388781  0.6336159407015639
  0.3606782883846932  0.6883957805230687  0.4965820848200253
  0.7545676940733850  0.0222570167578024  0.0949982181827569
  0.8531595157782270  0.3998104419758096  0.2889877618914314
  0.7358589042304481  0.7660433510193595  0.8671929720018626
  0.2136193824625182  0.1206573855020704  0.0395328316159058
 
  0.00000000E+00  0.00000000E+00  0.00000000E+00
  0.00000000E+00  0.00000000E+00  0.00000000E+00
  0.00000000E+00  0.00000000E+00  0.00000000E+00
  0.00000000E+00  0.00000000E+00  0.00000000E+00
  0.00000000E+00  0.00000000E+00  0.00000000E+00
  0.00000000E+00  0.00000000E+00  0.00000000E+00
  0.00000000E+00  0.00000000E+00  0.00000000E+00
  0.00000000E+00  0.00000000E+00  0.00000000E+00
  0.00000000E+00  0.00000000E+00  0.00000000E+00
  0.00000000E+00  0.00000000E+00  0.00000000E+00
  0.00000000E+00  0.00000000E+00  0.00000000E+00
  0.00000000E+00  0.00000000E+00  0.00000000E+00
  0.00000000E+00  0.00000000E+00  0.00000000E+00
  0.00000000E+00  0.00000000E+00  0.00000000E+00
  0.00000000E+00  0.00000000E+00  0.00000000E+00
  0.00000000E+00  0.00000000E+00  0.00000000E+00
  0.00000000E+00  0.00000000E+00  0.00000000E+00
  0.00000000E+00  0.00000000E+00  0.00000000E+00
