Cs2 Be2 F6                              
   1.00000000000000     
     6.0917857466608387   -0.0119036761680753   -0.0077907614594334
     0.0086682520737581    5.2572064780685341   -0.0037540823948975
     0.0004784646596894   -0.0022951770547079    5.7026697103140060
   Cs   Be   F 
     2     2     6
Direct
  0.9370198963958047  0.4863988732529000  0.2670316430171070
  0.4098144385572074  0.9867976000244555  0.2673297767863727
  0.8345603775968234  0.9862768434859300  0.7673017376677292
  0.5130807311282027  0.4865583000080404  0.7672886059155430
  0.3855613607721852  0.4877864009224517  0.5376452927335910
  0.9609180844831788  0.9855512872437666  0.5373933983496402
  0.3864438177156115  0.4871469031800907 -0.0027491440045734
  0.6733597347682182  0.2359944636529284  0.7662926972575576
  0.6745985684604042  0.7358430979730534  0.7675007667625557
  0.9617297630410653  0.9873282659409688 -0.0028959941300695
 
  0.00000000E+00  0.00000000E+00  0.00000000E+00
  0.00000000E+00  0.00000000E+00  0.00000000E+00
  0.00000000E+00  0.00000000E+00  0.00000000E+00
  0.00000000E+00  0.00000000E+00  0.00000000E+00
  0.00000000E+00  0.00000000E+00  0.00000000E+00
  0.00000000E+00  0.00000000E+00  0.00000000E+00
  0.00000000E+00  0.00000000E+00  0.00000000E+00
  0.00000000E+00  0.00000000E+00  0.00000000E+00
  0.00000000E+00  0.00000000E+00  0.00000000E+00
  0.00000000E+00  0.00000000E+00  0.00000000E+00
