Ba1 Bi1 F5                              
   1.00000000000000     
     4.0139778065676053    0.0026347331753369   -0.0046617527481266
    -0.0050970564188706    6.8066850268593280   -0.0024131624369186
     0.0028038941000669    0.0023445783278350    4.0123111173100821
   Ba   Bi   F 
     1     1     5
Direct
  0.7670716867659162  0.1755306073399464  0.1259895263447332
  0.2675995517221101  0.6755164887008492  0.6274093677593170
  0.2664573936976378  0.1742402799301922  0.6259169412499801
  0.2673642297003460  0.4822119763267912  0.1260703688645108
  0.7671255255426965  0.4820030214894760  0.6263164065368509
  0.2671987338398361  0.8687792998290907  0.1263594483285519
  0.7674373953330197  0.8681584133444470  0.6268370654191917
 
  0.00000000E+00  0.00000000E+00  0.00000000E+00
  0.00000000E+00  0.00000000E+00  0.00000000E+00
  0.00000000E+00  0.00000000E+00  0.00000000E+00
  0.00000000E+00  0.00000000E+00  0.00000000E+00
  0.00000000E+00  0.00000000E+00  0.00000000E+00
  0.00000000E+00  0.00000000E+00  0.00000000E+00
  0.00000000E+00  0.00000000E+00  0.00000000E+00
