Li3 Mn3 F9
1.0
   5.1673402786254883    0.0000000000000000    1.4124919176101691
   1.3206902426258005    5.5272575791485572    0.6172180175781258
   0.0000000000000000    0.0000000000000000    6.8431849479675293
Li Mn F
3 3 9
direct
   0.3837504386901856    0.5623004436492920    0.7708888649940491 Li
   0.8514020442962646    0.2898138463497162    0.6902021169662476 Li
   0.4482917487621307    0.0510203875601292    0.4998068511486053 Li
   0.9933831691741943    0.2268647849559784    0.1665922999382019 Mn
   0.7574309706687927    0.7985849380493164    0.0133315827697515 Mn
   0.2070982903242111    0.6537179946899414    0.3302788138389587 Mn
   0.5197458863258362    0.2508418858051300    0.6690267324447632 F
   0.8242151737213135    0.9174481630325317    0.3118931651115417 F
   0.6252205371856689    0.4920996427536011    0.2197960168123245 F
   0.2693467140197754    0.7926349639892579    0.5741814970970154 F
   0.1406768262386322    0.5501513481140137    0.0395674370229244 F
   0.7205509543418884    0.6156806349754333    0.7826797366142273 F
   0.3553196489810944    0.9582098722457886    0.1504349261522293 F
   0.9280439019203186    0.0944630354642868    0.9143594503402710 F
   0.1064393445849419    0.3169864714145660    0.4340481162071228 F
