K2 Gd4 F14
1.0
   6.8833227157592782    0.0000000000000000    1.0586310625076305
  -3.2938202143960198    5.7081431180717788   -2.4368586540222164
   0.0000000000000000    0.0000000000000000    7.2177896499633789
K Gd F
2 4 14
direct
   0.6484416127204895    0.2437534183263779    0.4781729578971863 K
   0.9836889505386353    0.9116440415382385    0.4804056882858276 K
   0.6633873581886292    0.7680479288101196    0.9838296771049500 Gd
   0.2895553708076477    0.0731213018298149    0.9980131983757019 Gd
   0.9909178614616394    0.4375169873237609    0.9854229092597961 Gd
   0.3088172376155853    0.5922839045524597    0.4973835945129395 Gd
   0.3850072920322418    0.3085400164127350    0.3209839165210724 F
   0.3254515230655670    0.9476801753044128    0.6499332785606384 F
   0.9708227515220642    0.0316524840891361    0.1828298121690750 F
   0.2046580016613006    0.8288068175315856    0.1775398850440979 F
   0.6483208537101746    0.1123448982834816    0.0671685710549355 F
   0.9687693119049072    0.7070471644401549    0.8676053285598755 F
   0.3391676843166351    0.7128909826278687    0.8485751748085022 F
   0.5878537297248840    0.8058602809906006    0.3243342041969299 F
   0.0218640007078648    0.3329179584980011    0.6368983983993530 F
   0.6326847672462463    0.3829745948314667    0.9236611127853394 F
   0.9760104417800903    0.0747966915369034    0.8551517724990845 F
   0.3107190430164337    0.4505693316459656    0.0483824238181114 F
   0.0103296330198646    0.5041933655738831    0.3265966773033142 F
   0.6230270862579346    0.6410051584243774    0.6398265957832336 F
