Y1 F3                                   
   1.00000000000000     
     3.3653022974005062   -0.0018350598946692   -1.1613784570797541
    -0.5764665417560428    3.9669008259806002   -1.6853841055153835
    -0.1068905867553084   -0.1477424484436341    5.1741238354862480
   Y    F 
     1     3
Direct
  0.7463573278565263  0.5640248339295709  0.9239336909192956
  0.3979277867824776  0.7131986542787165  0.2259500440719265
  0.7463685653708885  0.0652567840607162  0.9263471164785353
  0.0942131626176326  0.4166598839404648  0.6224316828863596
 
  0.00000000E+00  0.00000000E+00  0.00000000E+00
  0.00000000E+00  0.00000000E+00  0.00000000E+00
  0.00000000E+00  0.00000000E+00  0.00000000E+00
  0.00000000E+00  0.00000000E+00  0.00000000E+00
