K1 Y2 F7
1.0
   5.3745574951171875    0.0000000000000000   -0.0191155169159166
  -2.6835241650674666    5.4239616476224572   -2.8051784038543701
   0.0000000000000000    0.0000000000000000    5.6196250915527344
K Y F
1 2 7
direct
   0.5664488077163696    0.0972929373383522    0.5941588878631592 K
   0.9751698374748230    0.7929177284240724    0.9457589387893676 Y
   0.2913810908794403    0.4187644124031067    0.2597544193267822 Y
   0.4128856062889099    0.1059683933854103    0.0906097590923309 F
   0.1771329343318939    0.6505680680274963    0.6136215329170227 F
   0.6311953067779541    0.5695227980613708    0.0756554976105690 F
   0.1751010566949845    0.6525376439094545    0.1404706388711929 F
   0.9811531305313110    0.1054290011525154    0.8775296807289122 F
   0.0053486195392907    0.1092777177691460    0.3423201143741608 F
   0.6273500919342041    0.5485516190528870    0.5932497978210449 F
