Sr1 Al1 F5
1.0
   3.6327819824218750    0.0000000000000000   -1.2896662950515747
  -2.1652248259666602    5.3107476616610114   -0.3489025235176080
   0.0000000000000000    0.0000000000000000    5.7602772712707520
Sr Al F
1 1 5
direct
   0.7116343975067138    0.2639872729778290    0.6458470225334167 Sr
   0.7114166021347045    0.7632831931114197    0.1465114057064056 Al
   0.4410409331321716    0.4921267032623290    0.8759203553199768 F
   0.7124593853950499    0.9800399541854858    0.9318676590919495 F
   0.2115102112293243    0.7628788948059082    0.1462651342153549 F
   0.7115515470504760    0.5470427274703979    0.3617159128189087 F
   0.9837373495101928    0.0344893708825111    0.4182092845439911 F
