Ba2 Y1 F7
1.0
   4.5287170410156250    0.0000000000000000   -0.0078520039096471
  -2.2695551761837587    6.0151805902244329   -2.5853321552276602
   0.0000000000000000    0.0000000000000000    7.3853540420532227
Ba Y F
2 1 7
direct
   0.9976865053176880    0.2325794249773026    0.6495285034179688 Ba
   0.6088923215866089    0.4583687782287598    0.2881739735603333 Ba
   0.8035311698913574    0.8463302254676819    0.9683264493942261 Y
   0.4794673323631287    0.1989888101816178    0.4803670346736908 F
   0.3021875023841858    0.8447666764259339    0.9687108397483826 F
   0.1239103600382805    0.4900855123996735    0.4555137753486633 F
   0.8165666460990906    0.8727163672447206    0.2742061913013459 F
   0.9808453917503357    0.2032657265663147    0.0335829481482506 F
   0.7876784801483154    0.8164341449737549    0.6628496646881104 F
   0.6242862939834595    0.4871666431427003    0.9023152589797974 F
