Rb2 Ge2 F10
1.0
   4.3455233573913574    0.0000000000000000    2.4254274368286133
   1.3642705503549528    6.7256569510594888   -1.1873998641967780
   0.0000000000000000    0.0000000000000000    8.0202951431274414
Rb Ge F
2 2 10
direct
   0.6212218999862671    0.6610550284385680    0.5848815441131592 Rb
   0.0742355585098267    0.2599075138568878    0.9711558818817139 Rb
   0.5220253467559814    0.7700420022010803    0.0846031680703163 Ge
   0.1682439744472504    0.1488106846809387    0.4714960455894470 Ge
   0.9743995070457458    0.2504097819328308    0.3582870364189149 F
   0.4510497152805329    0.5317864418029784    0.0096401954069733 F
   0.8750380873680115    0.7630448341369629    0.8662212491035461 F
   0.1472540199756623    0.8622093200683593    0.3517938256263732 F
   0.7137681245803833    0.6696556210517882    0.2001951485872269 F
   0.4001991152763367    0.0254333782941103    0.5516003370285034 F
   0.2943685352802277    0.8951116800308228    0.0028512477874756 F
   0.5421907901763916    0.0587145760655403    0.2037600278854370 F
   0.2385047972202301    0.3875746428966522    0.5482454895973206 F
   0.8188567161560059    0.1535549163818359    0.6913898587226868 F
