Li4 Fe2 F10
1.0
   4.4492855072021484    0.0000000000000000   -1.5458108186721802
  -0.4842283577842608    5.8369530316726159   -1.3543411493301398
   0.0000000000000000    0.0000000000000000    7.1268529891967773
Li Fe F
4 2 10
direct
   0.5553271770477295    0.6779695749282837    0.5158193707466125 Li
   0.2697546482086182    0.0221042037010193    0.8678570985794067 Li
   0.9175787568092346    0.3405281603336334    0.1678121238946914 Li
   0.5691038370132446    0.1811539232730865    0.5182611346244812 Li
   0.9003044366836548    0.8581579923629761    0.2149760276079178 Fe
   0.2049420177936554    0.5045199394226074    0.8226327300071716 Fe
   0.0308276116847992    0.7783429622650146    0.9577496051788330 F
   0.0417102463543415    0.2910245060920715    0.9362652301788330 F
   0.3776420354843140    0.7264263033866881    0.7252539396286011 F
   0.5910801887512207    0.5839654207229614    0.0800908282399177 F
   0.3911554217338562    0.2410346418619156    0.7233539819717407 F
   0.1645578294992447    0.6336098313331604    0.3105821311473846 F
   0.6249215602874756    0.0696027427911758    0.0993237569928169 F
   0.7697108983993530    0.9130474328994751    0.4579634368419647 F
   0.1865204572677612    0.1220110952854156    0.3141629993915558 F
   0.8317413330078125    0.4495781064033508    0.5796654820442200 F
