Ca1 Ti1 F6
1.0
   5.2458500862121591    0.0000000000000000    0.0192788969725368
  -2.6171543984714836    4.5443017675883155    0.0004204905126251
   0.0000000000000000    0.0000000000000000    4.9736433029174805
Ca Ti F
1 1 6
direct
   0.7180713415145874    0.3136524558067322    0.6127204895019531 Ca
   0.3840868771076202    0.6460407972335815    0.1126890480518341 Ti
   0.6680428981781006    0.6344543695449829    0.3358884751796722 F
   0.3960828781127930    0.3612416088581085    0.8899123668670654 F
   0.0863720104098320    0.3610722422599792    0.3351848125457764 F
   0.6682915687561035    0.9435971975326538    0.8898199796676636 F
   0.0889208167791366    0.6335187554359436    0.8886142373085022 F
   0.3968722820281982    0.9434363245964050    0.3364495337009430 F
