Cs F  H  Li Na
 1.0000000000000000
     4.5227780254291252    0.0000000000000000    0.0000000000000000
    -4.5701902839398487    7.9994261900285748    0.0000000000000000
    -0.0068554298728265   -0.1834869212367574    8.6440204043917674
 Cs  F   H   Li  Na 
   4   7   1   1   1
Cartesian
 -0.1854058832975528  3.3780142121322534  8.5126064002813724
 -0.2126893349225436  7.5170986751408879  3.9974084101467562
 -0.1750256454785128  3.4481998482638332  3.9810201726094374
 -0.2210338148164032  7.4499467203337382  8.3660762461110139
  2.0784319181722282  1.3742236590019687  3.8976646956861791
  2.0793828977315645  1.2958681246171915  8.5240969207025650
 -2.4702355487634167  6.5902101173266292  6.2023208805521133
  2.0846322533421549  3.8229821090351641  1.9597098807891173
 -2.4542208581541649  4.2543381789966652  6.2793184962074342
 -0.1776137810813191  1.3748732224986626  6.2109014171449974
 -0.1672990530748087  1.3871172401072707  1.8902979046352386
 -2.4581721470432103  5.4113033325981341  6.2316128972997600
  2.0380172365772724  1.9173242828543080  1.8938970002500819
  2.0822573997579332  1.4730089084464317  6.2131091509807446
