Ca1 Mn1 F4                              
   1.00000000000000     
     3.3472919826735090   -0.0026756788619708    0.0043435458057176
     0.0017801425082959    4.9290792406685036   -0.0378890816304076
    -0.0042913252099024    0.0212459962106791    4.9253021253809610
   Ca   Mn   F 
     1     1     4
Direct
  0.4124317889796218  0.6226358284258652  0.0791528516326130
  0.9128798069972395  0.1226726345311670  0.5792210006123452
  0.4131947526024535  0.2944012268081245  0.4076536296763066
  0.9127717405271361  0.8375202650236815  0.2945178121008414
  0.9126655612459329  0.4081250696817754  0.8639269638407817
  0.4129190484410275  0.9515501777989408  0.7510557364718096
 
  0.00000000E+00  0.00000000E+00  0.00000000E+00
  0.00000000E+00  0.00000000E+00  0.00000000E+00
  0.00000000E+00  0.00000000E+00  0.00000000E+00
  0.00000000E+00  0.00000000E+00  0.00000000E+00
  0.00000000E+00  0.00000000E+00  0.00000000E+00
  0.00000000E+00  0.00000000E+00  0.00000000E+00
