Li3 Fe1 F6                              
   1.00000000000000     
     5.1018659562548487    0.0900604062452408   -1.0941251088964219
    -2.6141782149471995    4.3768816655563709   -1.0986259691278588
    -0.2095599505138975   -0.3743597106582535    5.0218804322461823
   Li   Fe   F 
     3     1     6
Direct
  0.7533971849278045  0.5155528783889438  0.8456662139259159
  0.4283944869529369  0.8425605287825414  0.8454241847726808
  0.1014393493995920  0.1674553615535221  0.8451660658718592
  0.9280919432489418  0.3413881577169949  0.3459557446485189
  0.3037693059545907  0.4211323000616941  0.6289874133213945
  0.7275271704197055  0.1418457042337567  0.5550081655692927
  0.0081491711261353  0.7169909057540462  0.6283619919603851
  0.1280709899327941  0.5420895655886945  0.1373068415912440
  0.8472871017976543  0.9652738755115132  0.0625409054696917
  0.5526954407333058  0.2620242812252024  0.0639260755859395
 
  0.00000000E+00  0.00000000E+00  0.00000000E+00
  0.00000000E+00  0.00000000E+00  0.00000000E+00
  0.00000000E+00  0.00000000E+00  0.00000000E+00
  0.00000000E+00  0.00000000E+00  0.00000000E+00
  0.00000000E+00  0.00000000E+00  0.00000000E+00
  0.00000000E+00  0.00000000E+00  0.00000000E+00
  0.00000000E+00  0.00000000E+00  0.00000000E+00
  0.00000000E+00  0.00000000E+00  0.00000000E+00
  0.00000000E+00  0.00000000E+00  0.00000000E+00
  0.00000000E+00  0.00000000E+00  0.00000000E+00
