Cs3 Fe1 F6
1.0
   6.4982800483703622    0.0000000000000000    0.0132323959842332
   3.2457115931845784    5.6122302297859488   -0.0179251935333017
   0.0000000000000000    0.0000000000000000    7.4220180511474609
Cs Fe F
3 1 6
direct
   0.3087640404701233    0.8901920318603516    0.7196550965309143 Cs
   0.6427260041236877    0.2213058173656464    0.4367063939571381 Cs
   0.9754505753517151    0.5556226968765259    0.0782250687479973 Cs
   0.9755936861038207    0.5557785034179688    0.5781690478324890 Fe
   0.1191842481493949    0.6969500184059144    0.4261730611324310 F
   0.6939920783042908    0.6972503662109375    0.4259270727634430 F
   0.1184332370758057    0.2718394696712494    0.4256884455680847 F
   0.2577059566974640    0.4142386913299561    0.7304287552833557 F
   0.8328415155410767    0.8392271399497986    0.7308523654937744 F
   0.8323203325271606    0.4146839976310730    0.7292369604110718 F
