Rb3 Li1 Al3 F13
1.0
   5.9688863754272461    0.0000000000000000    0.0126112112775454
  -2.9834224144252643    5.0845534252844677    0.9420145750045779
   0.0000000000000000    0.0000000000000000    9.5463733673095703
Rb Li Al F
3 1 3 13
direct
   0.9660317301750184    0.6528956294059753    0.9037019610404968 Rb
   0.0489243157207965    0.8151795268058776    0.4164858460426331 Rb
   0.6715335845947266    0.0619308874011040    0.6784290671348572 Rb
   0.2872010469436646    0.2931842207908630    0.9967955350875854 Li
   0.6149265766143799    0.9502741694450377    0.0586050488054752 Al
   0.3553207218647003    0.4310057163238525    0.5780928730964661 Al
   0.3967945277690887    0.5133801102638245    0.2950251698493958 Al
   0.5157420635223389    0.3454394042491913    0.4332453012466431 F
   0.9229939579963685    0.1143532320857048    0.9511421918869019 F
   0.6366019845008850    0.5473501086235046    0.6661462187767029 F
   0.3019724190235138    0.7252128124237061    0.1821531802415848 F
   0.2691037356853485    0.2609629631042480    0.1957422196865082 F
   0.1904739439487457    0.1014654114842415    0.6655477285385132 F
   0.7309902310371399    0.1837625801563263    0.1705629676580429 F
   0.1890699714422225    0.5470756888389586    0.6670232415199280 F
   0.4815468490123749    0.6845897436141968    0.9499157667160034 F
   0.5103953480720520    0.7405514717102051    0.4334921538829803 F
   0.1121270582079888    0.3458235561847687    0.4341285526752472 F
   0.4705486595630646    0.1110834702849388    0.9511921405792236 F
   0.7020699977874756    0.7265572547912598    0.1827698051929474 F
