K3 Be2 H4 F11                           
   1.00000000000000     
     4.6742397909213000   -0.0568718661313552    0.3098905220266842
    -1.9861761504473250    6.4201491744204597   -0.2935938815015701
     0.0428447476725629   -0.0244145067190909    9.8928361215409719
   K    Be   H    F 
     3     2     4    11
Direct
  0.0404844114987002  0.4417117993988669  0.4648720593631448
  0.3893327132235692  0.9974589910481664  0.2331648683681480
  0.2182931783744643  0.0692143143147070  0.7398778285983976
  0.7230239923503609  0.9287953019911748  0.5081011278832510
  0.0236249367752409  0.6141315491287754  0.9801511141104040
  0.5849046651145119  0.7297818046857820  0.9215885392205244
  0.5975694662903770  0.5903598129256334  0.6271720916401820
  0.9728289219292847  0.2275125793348242  0.0202467637881888
  0.7223484025183498  0.5153837855601049  0.2189859420411186
  0.4047260851189806  0.8240245505966359  0.4609812922441288
  0.3577495005745504  0.7689448611033517  0.9435907634491267
  0.9336616592859727  0.0340187405278658  0.3865319324228136
  0.7424440156746195  0.1011345918967792  0.6232671481938380
  0.5697127808562624  0.4227445711942129  0.2834528125522789
  0.9537398814767830  0.6378701237786983  0.1339479557243830
  0.8102582704614638  0.7051539703761736  0.8963547919371581
  0.8211422926659470  0.7493677116677002  0.5803062754072287
 -0.0033584985335277  0.3891421232648207  0.9344275331996064
  0.4253151438905874  0.4586050641470601  0.6549596359619796
  0.9566067804858317  0.1032680727908557  0.0756304295115764
 
  0.00000000E+00  0.00000000E+00  0.00000000E+00
  0.00000000E+00  0.00000000E+00  0.00000000E+00
  0.00000000E+00  0.00000000E+00  0.00000000E+00
  0.00000000E+00  0.00000000E+00  0.00000000E+00
  0.00000000E+00  0.00000000E+00  0.00000000E+00
  0.00000000E+00  0.00000000E+00  0.00000000E+00
  0.00000000E+00  0.00000000E+00  0.00000000E+00
  0.00000000E+00  0.00000000E+00  0.00000000E+00
  0.00000000E+00  0.00000000E+00  0.00000000E+00
  0.00000000E+00  0.00000000E+00  0.00000000E+00
  0.00000000E+00  0.00000000E+00  0.00000000E+00
  0.00000000E+00  0.00000000E+00  0.00000000E+00
  0.00000000E+00  0.00000000E+00  0.00000000E+00
  0.00000000E+00  0.00000000E+00  0.00000000E+00
  0.00000000E+00  0.00000000E+00  0.00000000E+00
  0.00000000E+00  0.00000000E+00  0.00000000E+00
  0.00000000E+00  0.00000000E+00  0.00000000E+00
  0.00000000E+00  0.00000000E+00  0.00000000E+00
  0.00000000E+00  0.00000000E+00  0.00000000E+00
  0.00000000E+00  0.00000000E+00  0.00000000E+00
