Li6 Fe2 F12
1.0
   5.4316396713256827    0.0000000000000000   -0.5882355570793151
   0.0175357179598708    5.0483003280017469   -0.0037145798560234
   0.0000000000000000    0.0000000000000000    7.4705605506896973
Li Fe F
6 2 12
direct
   0.3589989542961121    0.9559588432312012    0.6896106600761414 Li
   0.0468793660402298    0.4553905129432678    0.5961931943893433 Li
   0.9527605175971986    0.9552193284034728    0.3933930695056916 Li
   0.4531741738319398    0.4547920525074005    0.8927416205406189 Li
   0.5448499917984009    0.9543108344078063    0.0973241850733757 Li
   0.8604872822761537    0.4554559588432311    0.1892648339271545 Li
   0.4532077908515931    0.4551901221275329    0.3931901752948761 Fe
   0.9524071812629701    0.9547897577285768    0.8927317261695862 Fe
   0.6300209164619446    0.1173552945256233    0.8311569094657898 F
   0.2755403816699982    0.7929361462593079    0.9551379680633545 F
   0.9713612794876100    0.8127018213272095    0.6508090496063232 F
   0.6334359645843506    0.7594340443611145    0.3123952150344849 F
   0.4339861273765565    0.5979917645454407    0.6352677941322327 F
   0.2736975550651550    0.1495481729507446    0.4736177623271942 F
   0.1334745436906815    0.2594497799873352    0.8121997117996216 F
   0.1302397996187210    0.6167092919349670    0.3306657671928406 F
   0.7716906666755676    0.6506613492965698    0.9739454984664919 F
   0.7761263251304626    0.2936209738254547    0.4547120630741119 F
   0.9337896704673768    0.0979680046439171    0.1352720111608505 F
   0.4729516804218293    0.3117560148239136    0.1506290882825851 F
