Li1 Bi1 F4
1.0
   3.8868980407714839    0.0000000000000000    0.0114771509543066
  -0.0039797093085868    3.8836618536804424    0.0145190628245475
   0.0000000000000000    0.0000000000000000    5.3928737640380859
Li Bi F
1 1 4
direct
   0.5469633936882019    0.1546539068222046    0.1795255988836288 Li
   0.0473311841487885    0.6548323035240174    0.6800726056098938 Bi
   0.5475130677223206    0.6548560261726381    0.9334984421730042 F
   0.0473665483295918    0.1546692699193954    0.9335479736328125 F
   0.5475715994834900    0.6546761989593507    0.4251673817634583 F
   0.0472209155559540    0.1552437394857407    0.4259318113327026 F
