Li4 V1 O1 F5                            
   1.00000000000000     
     3.1412506746638917   -0.0101993282658496   -0.0241487836523343
    -1.5898438718509722    2.7435602753450632    0.0027212802529096
    -0.0155261346503350   -0.0441618371061482   13.5471190141705247
   Li   V    O    F 
     4     1     1     5
Direct
  0.5061215968124161  0.8937318629932062  0.0034239699569843
  0.1470431497302066  0.2264551968683406  0.3683891375101276
  0.8223087603978461  0.5611326088347806  0.1864245977855467
  0.1656553953133038  0.2197849572046650  0.8203491043611787
  0.8198127710083092  0.5487484856166036  0.6116523144099906
  0.4927840172804880  0.8856228033578039  0.6395385837647348
  0.1629426745532150  0.2205080897205436  0.5092834366707072
  0.8144141474788924  0.5596038389192254  0.3268020720848702
  0.8330683071687236  0.5536852681031930  0.7812558141447115
  0.1738292212087238  0.2283791669953907 -0.0388219908045973
  0.4922372698341224  0.8942233072999055  0.1441210754782707
 
  0.00000000E+00  0.00000000E+00  0.00000000E+00
  0.00000000E+00  0.00000000E+00  0.00000000E+00
  0.00000000E+00  0.00000000E+00  0.00000000E+00
  0.00000000E+00  0.00000000E+00  0.00000000E+00
  0.00000000E+00  0.00000000E+00  0.00000000E+00
  0.00000000E+00  0.00000000E+00  0.00000000E+00
  0.00000000E+00  0.00000000E+00  0.00000000E+00
  0.00000000E+00  0.00000000E+00  0.00000000E+00
  0.00000000E+00  0.00000000E+00  0.00000000E+00
  0.00000000E+00  0.00000000E+00  0.00000000E+00
  0.00000000E+00  0.00000000E+00  0.00000000E+00
