Cs2 Na1 Bi1 F6
1.0
   4.6836853027343750    0.0000000000000000    0.0161883346736420
   0.0155105979107601    6.5654495129311243    0.0077152266167106
   0.0000000000000000    0.0000000000000000    6.5606174468994141
Cs Na Bi F
2 1 1 6
direct
   0.4005320370197296    0.7164863944053650    0.8805377483367920 Cs
   0.4004443287849426    0.2164504975080490    0.3807191550731659 Cs
   0.9004073143005371    0.2162074297666550    0.8810003399848938 Na
   0.9002388119697571    0.7159529328346254    0.3808230757713318 Bi
   0.8999522924423218    0.9576836824417115    0.6221320629119873 F
   0.9006235003471375    0.4738564789295197    0.1402081996202469 F
   0.9005302786827087    0.9575424194335938    0.1388380527496338 F
   0.4006719887256622    0.2176843136548996    0.8817012310028076 F
   0.9005094170570374    0.4741673469543458    0.6217513680458069 F
   0.4008017480373383    0.7158228754997255    0.3804094195365906 F
