Mg1 Ti1 F6                              
   1.00000000000000     
     4.9036867331314058   -0.0129414338048291   -0.5522645620315706
     0.8917724791225721    4.2311302832757507   -2.3867314439371645
     0.0033930410424788    0.0294275962406761    5.1888630345008737
   Mg   Ti   F 
     1     1     6
Direct
  0.0695375772808874  0.8376857406892766  0.6786258664860718
  0.5695409877595513  0.3380731730167906  0.6794017305841366
  0.8125123925753024  0.5843214788338087  0.6809446812575667
  0.3351140190896592  0.4335799861375177  0.4054577000734877
  0.3346626017624993  0.7076660155517275  0.9520821819829908
  0.8047491476163566  0.2424266891385873  0.9523927482346422
  0.8040835221875623  0.9675517688065082  0.4057884841809631
  0.3259476251298230  0.0936329485908211  0.6795545181765509
 
  0.00000000E+00  0.00000000E+00  0.00000000E+00
  0.00000000E+00  0.00000000E+00  0.00000000E+00
  0.00000000E+00  0.00000000E+00  0.00000000E+00
  0.00000000E+00  0.00000000E+00  0.00000000E+00
  0.00000000E+00  0.00000000E+00  0.00000000E+00
  0.00000000E+00  0.00000000E+00  0.00000000E+00
  0.00000000E+00  0.00000000E+00  0.00000000E+00
  0.00000000E+00  0.00000000E+00  0.00000000E+00
