Li3 Mn2 F7
1.0
   3.4985451698303223    0.0000000000000000   -0.0001673936203588
   1.7445939646208912    5.2885949759353963    0.7417654991149910
   0.0000000000000000    0.0000000000000000    8.5817499160766602
Li Mn F
3 2 7
direct
   0.3133473992347718    0.0786861553788185    0.1953011900186539 Li
   0.9312407970428467    0.8404173851013182    0.7089163661003113 Li
   0.0079853627830745    0.6889316439628600    0.1586347967386246 Li
   0.6718353033065796    0.3604717552661896    0.8985384702682495 Mn
   0.6238769292831421    0.4536634981632232    0.4658011198043823 Mn
   0.1320848912000657    0.4391726255416870    0.0181335750967264 F
   0.7493243217468262    0.2009497880935669    0.6894358396530151 F
   0.0263663642108440    0.6461950540542603    0.5393461585044861 F
   0.8275575041770935    0.0493796244263649    0.0862885266542435 F
   0.4826142489910125    0.7351050972938538    0.7958583831787109 F
   0.5005104541778563    0.7036257982254028    0.2489953190088272 F
   0.2117416709661484    0.2783537805080414    0.3637621700763702 F
