Rb3 Bi1 F6                              
   1.00000000000000     
     4.3622432577359787   -0.0634546229511656    0.1691542770960875
     0.5184660670826687    7.7178609045937954   -0.0394678976935485
    -0.0245318828821991   -0.1430245239975181    6.7482691503245329
   Rb   Bi   F 
     3     1     6
Direct
  0.6111412128374712  0.2084859830003223  0.6911694953189361
  0.6239302534418899  0.8969294100706722  0.2123823028600018
  0.1577028373356990  0.6975739295029998  0.7197122340873275
  0.0642888301236531  0.3841899206061457  0.2143328246503031
  0.1463519230903793  0.6666066356320889  0.1615976576534535
  0.7401980260303619  0.5083943484375524  0.4525743473448946
  0.0828964311186367  0.3669008064985130  0.8839299324165716
  0.6126578987272558  0.2802131645850487  0.1369871896034983
  0.6385015232625967  0.8848118610222216  0.8104079281560511
  0.1074447972938799  0.1271231332589911  0.3857286297418868
 
  0.00000000E+00  0.00000000E+00  0.00000000E+00
  0.00000000E+00  0.00000000E+00  0.00000000E+00
  0.00000000E+00  0.00000000E+00  0.00000000E+00
  0.00000000E+00  0.00000000E+00  0.00000000E+00
  0.00000000E+00  0.00000000E+00  0.00000000E+00
  0.00000000E+00  0.00000000E+00  0.00000000E+00
  0.00000000E+00  0.00000000E+00  0.00000000E+00
  0.00000000E+00  0.00000000E+00  0.00000000E+00
  0.00000000E+00  0.00000000E+00  0.00000000E+00
  0.00000000E+00  0.00000000E+00  0.00000000E+00
