Cs3 Pr1 F6
1.0
   4.6619977951049796    0.0000000000000000   -3.8801684379577646
   0.3720332461267806    6.5919031072441792   -7.4539465904235831
   0.0000000000000000    0.0000000000000000    8.6951589584350586
Cs Pr F
3 1 6
direct
   0.1466508805751801    0.4588867127895355    0.1529363989830017 Cs
   0.1462690234184265    0.4584620594978334    0.6518203020095826 Cs
   0.6466709971427916    0.9594147205352784    0.6539708971977235 Cs
   0.6459790468215942    0.9599395394325257    0.1522932499647142 Pr
   0.6180440783500671    0.7411954998970032    0.1521138250827790 F
   0.6727097034454346    0.1780609041452408    0.1532112509012223 F
   0.0764567330479622    0.7812241315841676    0.1528411805629731 F
   0.4304832816123962    0.7408503890037538    0.7128103375434877 F
   0.2147105485200882    0.1373971253633499    0.1516955941915512 F
   0.8589206933975220    0.1777624934911728    0.5920830368995667 F
