Li3 As1 F8
1.0
   5.0317888259887695    0.0000000000000000   -2.2016503810882564
  -2.3946701397939596    4.6023556803024652   -1.8315021991729743
   0.0000000000000000    0.0000000000000000    5.5022721290588379
Li As F
3 1 8
direct
   0.8372231125831604    0.4726521372795105    0.4241891205310822 Li
   0.6109125614166259    0.9724471569061278    0.6998144388198853 Li
   0.3842276036739349    0.4731224179267883    0.9728466272354125 Li
   0.1101670116186142    0.9724078178405762    0.1995837092399597 As
   0.1101676225662231    0.6845740675926208    0.9122838973999022 F
   0.6109713912010193    0.2652026712894440    0.9917713403701781 F
   0.5225909352302551    0.1622908711433411    0.4246135354042053 F
   0.6982672810554504    0.7827518582344055    0.9736368656158446 F
   0.1473758965730667    0.7840200662612915    0.4237781465053558 F
   0.6108309030532837    0.6803538799285889    0.4074375331401825 F
   0.0741532072424889    0.1616954058408737    0.9751113057136535 F
   0.1094258502125740    0.2589631080627441    0.4863645136356353 F
