Ba1 Nd1 Pb4 F12
1.0
   3.8291420936584473    0.0000000000000000   -0.0012828462058672
   0.0019345193219732    6.5025603277786752   -0.1307953298091878
   0.0000000000000000    0.0000000000000000   11.5976705551147461
Ba Nd Pb F
1 1 4 12
direct
   0.1343214362859726    0.1765205562114716    0.8040697574615479 Ba
   0.6326482892036437    0.6709234118461608    0.6321406960487366 Nd
   0.1354134231805801    0.6777606606483459    0.2981216311454773 Pb
   0.1328240782022476    0.1712670177221298    0.4679123461246490 Pb
   0.6348699331283568    0.1705955266952514    0.1453559398651123 Pb
   0.6358559727668761    0.6685885190963744    0.9763713479042053 Pb
   0.6336259841918944    0.4534964263439178    0.7986031174659729 F
   0.1330200135707855    0.7922466993331908    0.5223645567893982 F
   0.1343916952610016    0.2909237146377563    0.2655094265937805 F
   0.6341837048530578    0.0429673604667187    0.9309729337692261 F
   0.6354966163635253    0.5703920722007751    0.1800817996263504 F
   0.6324702501296996    0.0410240627825260    0.6390291452407837 F
   0.6333619356155394    0.4688980877399445    0.4545310735702515 F
   0.6340153813362120    0.9772889614105223    0.3367980122566223 F
   0.1326122432947159    0.4296622574329376    0.6271104216575623 F
   0.1332653462886810    0.7729794383049010    0.7661173343658447 F
   0.1351341158151627    0.4133008122444152    0.0007368326187134 F
   0.1354318708181381    0.8899120092391967    0.1160012707114220 F
