Li1 Zn1 Mo1 F7
1.0
   5.0211791992187500    0.0000000000000000   -0.0485650151968000
   0.3973390582767421    4.9536678407759265   -0.0009931129170578
   0.0000000000000000    0.0000000000000000    5.2637376785278320
Li Zn Mo F
1 1 1 7
direct
   0.2762219905853271    0.1400106400251389    0.0633275061845779 Li
   0.8508503437042237    0.1160301268100738    0.5607978105545044 Zn
   0.3134385943412781    0.5646942853927612    0.5617382526397705 Mo
   0.1565151810646057    0.8617669343948363    0.7991732358932495 F
   0.5408456325531006    0.2973184585571289    0.3270197510719299 F
   0.1458519399166107    0.8667455315589905    0.3278252482414246 F
   0.6400777101516724    0.7856745719909668    0.5600178241729736 F
   0.0565545409917831    0.3657285273075104    0.7903384566307068 F
   0.0514151751995087    0.3713364899158478    0.3326513469219208 F
   0.5478535890579224    0.2972438931465149    0.7956808209419250 F
