Ca1 Bi2 F8                              
   1.00000000000000     
     5.6280788575480649    0.0014903759784016    0.0007050735807238
    -0.0023157049516374    5.6268388786328707    0.0021856478007111
    -0.0004484484570160   -0.0013693772592257    5.6274103462148437
   Ca   Bi   F 
     1     2     8
Direct
  0.0245464266611323  0.9632273538570447  0.7858154979590157
  0.0250499880091991  0.4635123735609229  0.2863643185084079
  0.5249824159098297  0.4638215072399009  0.7861603945487071
  0.7877437134385552  0.7012753178630901  0.5476627064516703
  0.2636820950966385  0.2275562237687609  0.5476569349853327
  0.2620224247588874  0.2263399981449452  0.0236537853695150
  0.7870583624833581  0.2266487784209974  0.5481299679772897
  0.7864036838506671  0.2256533683770217  0.0246128209655399
  0.2631641622883159  0.7006961198660937  0.0234438224372038
  0.2651066982766830  0.7027811140080403  0.5467448283463333
  0.7870188706179394  0.6999945847479944  0.0242367844148529
 
  0.00000000E+00  0.00000000E+00  0.00000000E+00
  0.00000000E+00  0.00000000E+00  0.00000000E+00
  0.00000000E+00  0.00000000E+00  0.00000000E+00
  0.00000000E+00  0.00000000E+00  0.00000000E+00
  0.00000000E+00  0.00000000E+00  0.00000000E+00
  0.00000000E+00  0.00000000E+00  0.00000000E+00
  0.00000000E+00  0.00000000E+00  0.00000000E+00
  0.00000000E+00  0.00000000E+00  0.00000000E+00
  0.00000000E+00  0.00000000E+00  0.00000000E+00
  0.00000000E+00  0.00000000E+00  0.00000000E+00
  0.00000000E+00  0.00000000E+00  0.00000000E+00
