Ba F  Si
 1.0000000000000000
     6.0106681868778136    0.0000000000000000    0.0000000000000000
     0.1981833700335895    5.9929863732002984    0.0000000000000000
     0.1022156476674976    0.1532601979871770    7.5788642728209501
 Ba  F   Si 
   2  12   2
Cartesian
  4.4180982593385947  3.9115459977333225  3.0511937645626452
  1.3571629295816623  1.0096749827295564  6.8462671740567469
  5.3131402272456789  3.1173410255113314  5.6133924195130929
  0.6374674800306480  6.0731360831191470  4.3166616880890603
  5.2035322316051831  2.9821190105864721  0.4944054329149129
  3.5232585794761486  4.7405080975419569  0.4851215340570265
  3.6157909659873928  4.8687442582031446  5.5912713831876530
  2.1746205812448265  1.7511993486682838  1.7921286272605292
  0.5730849404257584  6.0271221552892937  1.8660334606227542
  5.6881688380951596  5.1891902887694545  6.8420443504832571
  2.6633292611357362  5.6925206746669339  3.0381614208866297
  3.2363967806332679  2.8173055670396265  6.8237675833715929
  0.1634447479204754  2.1234601872384453  3.0594754317184840
  2.2622586568003253  1.8039183089887814  4.2599720433834598
  1.3114143254539887  0.9076494896552860  3.0544234476112821
  4.4718489188699033  4.0016847205537394  6.8301695790587464
