Ca2 Mn2 F8                              
   1.00000000000000     
     5.2448006740805546    0.0960536489086574    0.0003783616501434
     0.2725653394223418    5.3258186823933844    0.0102869552345835
    -0.0031198866088198    0.0014876707083434    5.3232447618831449
   Ca   Mn   F 
     2     2     8
Direct
  0.1962539794217404  0.4269516121058863  0.4932195792576454
  0.1955575742285160  0.9269842291109391  0.9925103803882208
  0.6954404771276363  0.4273673889818444  0.9927063146014621
  0.6954188178254536  0.9274321874890185  0.4924854626385210
  0.3635628710841033  0.5531318273916030  0.1369630130132919
  0.3636377929740878  0.0530162543563797  0.3479667651204437
  0.8318410645421274  0.2220722126098417  0.3003067684789762
  0.0271864762927283  0.8007599756402038  0.6370226283830347
  0.5593681147823376  0.1324495129318833  0.8003764242196255
  0.8320542966020826  0.7226679012576585  0.1851971109102056
  0.0267362597380822  0.3004897342492210  0.8480514512995626
  0.5585948183894318  0.6328187716369034  0.6852798583485185
 
  0.00000000E+00  0.00000000E+00  0.00000000E+00
  0.00000000E+00  0.00000000E+00  0.00000000E+00
  0.00000000E+00  0.00000000E+00  0.00000000E+00
  0.00000000E+00  0.00000000E+00  0.00000000E+00
  0.00000000E+00  0.00000000E+00  0.00000000E+00
  0.00000000E+00  0.00000000E+00  0.00000000E+00
  0.00000000E+00  0.00000000E+00  0.00000000E+00
  0.00000000E+00  0.00000000E+00  0.00000000E+00
  0.00000000E+00  0.00000000E+00  0.00000000E+00
  0.00000000E+00  0.00000000E+00  0.00000000E+00
  0.00000000E+00  0.00000000E+00  0.00000000E+00
  0.00000000E+00  0.00000000E+00  0.00000000E+00
