Na3 Sb1 F6                              
   1.00000000000000     
     5.5406104807179313    0.0639363514510285   -1.8428404722884464
    -3.0091912654366788    4.6614472226067019   -1.8393727024403259
    -0.0164586689871328   -0.0185492490479596    6.6523017748915807
   Na   Sb   F 
     3     1     6
Direct
  0.1493445357981596  0.7973370146620805  0.6844867757989647
  0.4704596990938802  0.4764585890776829  0.1844051816200646
  0.5262858341357867  0.4189092733455266  0.6842997682349452
  0.8288879289154532  0.1173040938939598  0.1846745970858684
  0.2576332498993002  0.5121564107090432  0.4141615337117703
  0.9872415655835195  0.9718631916770697  0.9584208818694768
  0.9779312676335238  0.9565641528829893  0.4092900706296486
  0.4329368818986740  0.6879915099599649  0.9525276337439326
  0.5719231706354165  0.2230896892991886  0.9224055547902729
  0.7260740458706264  0.3766566294546531  0.4496210157301213
 
  0.00000000E+00  0.00000000E+00  0.00000000E+00
  0.00000000E+00  0.00000000E+00  0.00000000E+00
  0.00000000E+00  0.00000000E+00  0.00000000E+00
  0.00000000E+00  0.00000000E+00  0.00000000E+00
  0.00000000E+00  0.00000000E+00  0.00000000E+00
  0.00000000E+00  0.00000000E+00  0.00000000E+00
  0.00000000E+00  0.00000000E+00  0.00000000E+00
  0.00000000E+00  0.00000000E+00  0.00000000E+00
  0.00000000E+00  0.00000000E+00  0.00000000E+00
  0.00000000E+00  0.00000000E+00  0.00000000E+00
