Ca2 Ho2 F10                             
   1.00000000000000     
     5.2657687211117237   -0.0220122396449461   -2.4218266343199804
    -0.9195327627326122    4.8279608887698169   -2.0498060722856906
    -0.1267052814003471    0.1121158655966306    7.2549656486292875
   Ca   Ho   F 
     2     2    10
Direct
  0.9576784898437221  0.2896771442634874  0.4268290258080745
  0.4572371759470013  0.7751290464840394  0.4271136989855511
  0.1036456523205668  0.0562509995532266  0.9494466692262495
  0.6032772436850310  0.5304837086141052  0.9497051664255710
  0.0175286691282198  0.4620129865803920  0.1670254333007653
  0.8600109091287201  0.6804349697401831  0.6343304356589494
  0.7754890183930225  0.9272834434270967 -0.0088101085419486
  0.7406798991411842  0.2006270065225499  0.7337067903563185
  0.2407188575324161  0.1707054748106683  0.7335208782653392
  0.3598916772916652  0.5933394223531616  0.6357406872394906
  0.5179172090422403  0.3411400347114102  0.1659205253567693
  0.2738169682948115  0.7001073279920271 -0.0092511660693364
  0.2504976220932044  0.0904060687278746  0.3096223479525052
  0.7490312061286805  0.8573024472284506  0.3092230550422105
 
  0.00000000E+00  0.00000000E+00  0.00000000E+00
  0.00000000E+00  0.00000000E+00  0.00000000E+00
  0.00000000E+00  0.00000000E+00  0.00000000E+00
  0.00000000E+00  0.00000000E+00  0.00000000E+00
  0.00000000E+00  0.00000000E+00  0.00000000E+00
  0.00000000E+00  0.00000000E+00  0.00000000E+00
  0.00000000E+00  0.00000000E+00  0.00000000E+00
  0.00000000E+00  0.00000000E+00  0.00000000E+00
  0.00000000E+00  0.00000000E+00  0.00000000E+00
  0.00000000E+00  0.00000000E+00  0.00000000E+00
  0.00000000E+00  0.00000000E+00  0.00000000E+00
  0.00000000E+00  0.00000000E+00  0.00000000E+00
  0.00000000E+00  0.00000000E+00  0.00000000E+00
  0.00000000E+00  0.00000000E+00  0.00000000E+00
