Rb2 Sb1 F7                              
   1.00000000000000     
     6.0687304555116945    0.8958055633973470    2.0764200659450895
     2.6953064429037079    6.3300804593997748   -1.2607150549035655
     0.8068375041725923    0.1983538266374272    6.9834477201746505
   Rb   Sb   F 
     2     1     7
Direct
  0.8874182291902463  0.6197364867752422  0.8156248909698485
  0.8921425752711798  0.0650593094553281  0.3631086388377907
  0.5303080522748032  0.6973663712624975  0.4443297820378048
  0.1256442645364224  0.8679669187248937  0.6156586283628512
  0.4130080018447074 -0.1053302553941360  0.2792441435746121
  0.8486694185074428  0.7083731117047861  0.2284223457207611
 -0.3725973466049978  0.4547055482735063  0.1991446282591149
  0.4746714986416052  0.9276759611374339  0.6735520699814843
  0.4153747515318648  0.5250951911725910  0.6333283767032668
 -0.1538036366777250  0.4826631644010925  0.4595598497728563
 
  0.00000000E+00  0.00000000E+00  0.00000000E+00
  0.00000000E+00  0.00000000E+00  0.00000000E+00
  0.00000000E+00  0.00000000E+00  0.00000000E+00
  0.00000000E+00  0.00000000E+00  0.00000000E+00
  0.00000000E+00  0.00000000E+00  0.00000000E+00
  0.00000000E+00  0.00000000E+00  0.00000000E+00
  0.00000000E+00  0.00000000E+00  0.00000000E+00
  0.00000000E+00  0.00000000E+00  0.00000000E+00
  0.00000000E+00  0.00000000E+00  0.00000000E+00
  0.00000000E+00  0.00000000E+00  0.00000000E+00
