Na1 Ca2 Y1 F8
1.0
   5.4785885810852051    0.0000000000000000    0.0011616230476647
   0.0069979197398256    5.4592025727867863   -0.0011046262225135
   0.0000000000000000    0.0000000000000000    5.4764456748962402
Na Ca Y F
1 2 1 8
direct
   0.7524539232254028    0.2820188105106354    0.4864929020404816 Na
   0.2518140077590942    0.7820722460746764    0.4873497188091278 Ca
   0.7519069314002991    0.7824112772941589    0.9869722127914429 Ca
   0.2523601353168488    0.2822091877460480    0.9871546030044556 Y
   0.4917218089103699    0.0342995598912239    0.7480530142784119 F
   0.4916425049304962    0.5294516682624817    0.2269617319107056 F
   0.0131039423868060    0.0342767760157585    0.7476950883865356 F
   0.4912730753421783    0.5305187702178955    0.7477539777755737 F
   0.0134554766118526    0.0348639860749245    0.2267181575298309 F
   0.0124417264014482    0.5292207002639771    0.7472035288810730 F
   0.0132346423342824    0.5315772294998169    0.2255236059427261 F
   0.4917442500591278    0.0347128212451935    0.2264612913131714 F
