Li4 Mn2 F8                              
   1.00000000000000     
     5.3910247174411587   -0.0293393711789823    0.0189994129104544
    -2.1690852728418708    4.7934265087471140   -0.0022316147407343
    -0.0014166842408751   -0.0067277312048265    5.9287714277955148
   Li   Mn   F 
     4     2     8
Direct
  0.1537004054903437  0.4466219831567035  0.6671660533251280
  0.1513218539876292  0.9457693682774296  0.9764108117982729
  0.4903165967926559  0.7073329617068433  0.9778042860105683
  0.4930495382275366  0.2084800807052438  0.6711959066928271
  0.8212909838884755  0.3279350890231462  0.1970494204046063
  0.8226774779918051  0.8277229168445261  0.4487928621262137
  0.0906674830865785  0.5718359652996354  0.9541345161441200
  0.0348189596682122  0.0930148712889617  0.2051222711280453
  0.0363450108359570  0.5925946089233565  0.4388249443212824
  0.5505083030130411  0.0813264289943611  0.9573987555529868
  0.6066445262138294  0.5625318190225387  0.2067953425100293
  0.6091051559855443  0.0631636232303023  0.4406634711685536
  0.5531780019444545  0.5827447357576102  0.6906026772524491
  0.0937348201434532  0.0723375691678855  0.6883597676139970
 
  0.00000000E+00  0.00000000E+00  0.00000000E+00
  0.00000000E+00  0.00000000E+00  0.00000000E+00
  0.00000000E+00  0.00000000E+00  0.00000000E+00
  0.00000000E+00  0.00000000E+00  0.00000000E+00
  0.00000000E+00  0.00000000E+00  0.00000000E+00
  0.00000000E+00  0.00000000E+00  0.00000000E+00
  0.00000000E+00  0.00000000E+00  0.00000000E+00
  0.00000000E+00  0.00000000E+00  0.00000000E+00
  0.00000000E+00  0.00000000E+00  0.00000000E+00
  0.00000000E+00  0.00000000E+00  0.00000000E+00
  0.00000000E+00  0.00000000E+00  0.00000000E+00
  0.00000000E+00  0.00000000E+00  0.00000000E+00
  0.00000000E+00  0.00000000E+00  0.00000000E+00
  0.00000000E+00  0.00000000E+00  0.00000000E+00
