Rb3 P1 O3 F2                            
   1.00000000000000     
     5.6517226918901766    0.0067258842573075   -0.1674304152236264
    -0.1609832737648283    5.6546697529860079   -0.1463189192608465
     0.0087334446282319   -0.0034661793044716    5.6534281063800194
   Rb   P    O    F 
     3     1     3     2
Direct
  0.6723421618717653  0.8753646320213352  0.2220567600631319
  0.6751031346966795  0.3684950031614703  0.7312379938170466
  0.1660176196213879  0.8759342530792580  0.7282974906233473
  0.2205860763609403  0.4214953815930197  0.2772916732444343
  0.4701070416736771  0.3544414930500858  0.2099584384989465
  0.1534338597591382  0.3554879066861115  0.5271992835703564
  0.1496127179159447  0.6684639060592915  0.2055600702515035
  0.0462456373437350  0.2418728410121477  0.1042721291392592
  0.6638924883379851  0.8666935639786453  0.7200830328975729
 
  0.00000000E+00  0.00000000E+00  0.00000000E+00
  0.00000000E+00  0.00000000E+00  0.00000000E+00
  0.00000000E+00  0.00000000E+00  0.00000000E+00
  0.00000000E+00  0.00000000E+00  0.00000000E+00
  0.00000000E+00  0.00000000E+00  0.00000000E+00
  0.00000000E+00  0.00000000E+00  0.00000000E+00
  0.00000000E+00  0.00000000E+00  0.00000000E+00
  0.00000000E+00  0.00000000E+00  0.00000000E+00
  0.00000000E+00  0.00000000E+00  0.00000000E+00
