Rb1 H1 F2                               
   1.00000000000000     
     3.6695705990451479    0.0011383223963943   -0.0042505083016985
    -0.0048903281912503    3.6666245940970184   -0.0018086757757002
     0.0014621110058070    0.0006387505362702    5.1589723270144221
   Rb   H    F 
     1     1     2
Direct
  0.4876501434778510  0.2002445082188183  0.4540917472846969
  0.9881039948160519  0.7001008055666613  0.9540876040432160
  0.9886168346930896  0.7000385093840059  0.7310476591760940
  0.9872801829616463  0.6999471137392361  0.1771298719489580
 
  0.00000000E+00  0.00000000E+00  0.00000000E+00
  0.00000000E+00  0.00000000E+00  0.00000000E+00
  0.00000000E+00  0.00000000E+00  0.00000000E+00
  0.00000000E+00  0.00000000E+00  0.00000000E+00
