Ca F  Na Tm
 1.0000000000000000
     5.5078681732490384    0.0000000000000000    0.0000000000000000
    -0.0078591130528766    5.5084230275108199    0.0000000000000000
    -2.7486873871190447   -2.7545815602992589    5.4346226713732086
 Ca  F   Na  Tm 
   2   8   1   1
Cartesian
  0.1996003828650721  4.1113930458631316  2.1974868299655816
  2.9556126204957418  1.3568229313412126  2.1984712494484278
  1.5125867935769117  0.0520269440304502  0.8174819897445631
  1.6480425383695185  2.8015159554342146  3.5780684253327704
  1.6547113589707501 -0.0872160514883597  3.5744177482772690
 -1.2378208725709050 -0.0864049800705024  3.5753270162892297
  1.5083979352320545  2.6641011219941131  0.8194281536974866
 -1.2461278256477650  2.8007216969639579  3.5785679234711538
  4.4015190077602799  2.6631877049361652  0.8177621071344250
  4.4043775162235370  0.0477674161519177  0.8170382883340246
  0.2042267274155839  1.3562541534332744  4.9136911391360218
  2.9632755515724152 -1.3946005475516148  4.9126118085283093
