K3 Sn2 F7
1.0
   6.0914278030395508    0.0000000000000000   -0.0013269510818639
  -2.7837200623991967    4.7833396323012822   -2.6073045730590829
   0.0000000000000000    0.0000000000000000    7.8049635887145996
K Sn F
3 2 7
direct
   0.5720919966697693    0.1886562854051590    0.3760715723037720 K
   0.1751697063446045    0.3683566153049469    0.1571131944656372 K
   0.3846873342990875    0.8049638271331787    0.8033677935600281 K
   0.9675587415695190    0.9526569843292237    0.5330694913864136 Sn
   0.7650200128555298    0.5482851266860962    0.9237730503082275 Sn
   0.0374237075448036    0.3134023547172546    0.4961635172367096 F
   0.2874967455863953    0.3129700124263763    0.7957848310470581 F
   0.6600679755210876    0.8294543027877808    0.1086424291133881 F
   0.1392572820186616    0.8467668294906617    0.1094691008329391 F
   0.8700549006462097    0.8894463181495668    0.7928301095962524 F
   0.5708042383193970    0.8527023792266846    0.5002462267875671 F
   0.6474584937095642    0.3534480333328247    0.1097729951143265 F
