Rb2 Li4 F6                              
   1.00000000000000     
     5.8246798980748524   -0.0231638602874245    1.1423429462611603
     3.0345769742708959    4.9769536047882887    1.1440720153840951
    -0.0545082878421849   -0.0285755587343718    5.9945347942157676
   Rb   Li   F 
     2     4     6
Direct
  0.8669578035722573  0.6829133101996668  0.8666278515015642
  0.4245768605786668  0.1241117600655654  0.3666260200796237
  0.4968486823078471  0.4120437576939868  0.7990299686705220
  0.1542007869099772  0.7531675888012609  0.2982830919592833
  0.7948761931248559  0.3960458404346263  0.4329629093515625
  0.1374013559460252  0.0544192749201116  0.9336135234517884
  0.3216232834752521  0.6785275711165769 -0.0039443711927560
  0.3791891569546176  0.1711194091542459  0.8659667188247321
  0.4191417927795137  0.5833257267895005  0.4964933573998849
  0.9132191399849396  0.6359567440198980  0.3646737485712906
  0.9681108957747112  0.1292980136666012  0.2361540891673170
  0.8721483424717990  0.2272729709137815  0.7357167556909988
 
  0.00000000E+00  0.00000000E+00  0.00000000E+00
  0.00000000E+00  0.00000000E+00  0.00000000E+00
  0.00000000E+00  0.00000000E+00  0.00000000E+00
  0.00000000E+00  0.00000000E+00  0.00000000E+00
  0.00000000E+00  0.00000000E+00  0.00000000E+00
  0.00000000E+00  0.00000000E+00  0.00000000E+00
  0.00000000E+00  0.00000000E+00  0.00000000E+00
  0.00000000E+00  0.00000000E+00  0.00000000E+00
  0.00000000E+00  0.00000000E+00  0.00000000E+00
  0.00000000E+00  0.00000000E+00  0.00000000E+00
  0.00000000E+00  0.00000000E+00  0.00000000E+00
  0.00000000E+00  0.00000000E+00  0.00000000E+00
