Na1 Pr2 F7                              
   1.00000000000000     
     3.8597683648634811   -0.0073067288353965   -1.1732510899208934
    -0.7386363016168992    5.3722165605782397   -2.4594794344404538
    -0.0022924444913917   -0.1313784765089052    6.9188629962216233
   Na   Pr   F 
     1     2     7
Direct
  0.0618394422525111  0.5547514056414333  0.1912808055530944
  0.7269915655584823  0.2130423934039422  0.5048839126327901
  0.3860997603552666  0.8684552302373606  0.8201904053250670
  0.5565781809348292  0.8275040600641401  0.1673721446879980
  0.2371255718538591  0.0078568333572592  0.5258476502690785
  0.9073734451642267  0.6229560949864196  0.8653157387095901
  0.7473991941946431  0.7268085881888464  0.5464913709621185
  0.5592968892221258  0.2571793514102674  0.1650838211833571
  0.2383830799057493  0.4349247411440346  0.5272434286811751
  0.9065006687961070  0.1564286330329713  0.8619379956554369
 
  0.00000000E+00  0.00000000E+00  0.00000000E+00
  0.00000000E+00  0.00000000E+00  0.00000000E+00
  0.00000000E+00  0.00000000E+00  0.00000000E+00
  0.00000000E+00  0.00000000E+00  0.00000000E+00
  0.00000000E+00  0.00000000E+00  0.00000000E+00
  0.00000000E+00  0.00000000E+00  0.00000000E+00
  0.00000000E+00  0.00000000E+00  0.00000000E+00
  0.00000000E+00  0.00000000E+00  0.00000000E+00
  0.00000000E+00  0.00000000E+00  0.00000000E+00
  0.00000000E+00  0.00000000E+00  0.00000000E+00
