Li3 Mn3 F9                              
   1.00000000000000     
     4.6835042481663729   -0.3449315672429740    1.1822126186614426
     0.8883924923237102    4.8705272288379717    0.2783785190768020
    -0.3150107851513836   -0.3464203140709077    6.9875501094830037
   Li   Mn   F 
     3     3     9
Direct
  0.3784992031974694  0.6065865458422695  0.7509966488200590
  0.8448607307059245  0.2960358835922461  0.7106918380260688
  0.4317716906921098  0.0764078415892975  0.4745336720949613
  0.9994299930625322  0.2140358813197366  0.1748083528102268
  0.7807959649198887  0.7957986457488797  0.0678874886315681
  0.2090391346048315  0.6272749602215854  0.2865898546748799
  0.4959909300136557  0.2560180789131838  0.6725899978967755
  0.8367831265580533  0.9045295719963488  0.3356278710003536
  0.6245233429080808  0.4700908559417866  0.2027416877910611
  0.2726154312225549  0.7604784737514518  0.5300384243391960
  0.1469586676817803  0.5375646713168765  0.0177822495287246
  0.7218646214000375  0.6594602666853766  0.8251641511273832
  0.3677302104747242  0.9589059219599190  0.1610306731512242
  0.9508158939412965  0.0934205241781440  0.9187860925072314
  0.0692367078523079  0.3142102899918799  0.4378186050585200
 
  0.00000000E+00  0.00000000E+00  0.00000000E+00
  0.00000000E+00  0.00000000E+00  0.00000000E+00
  0.00000000E+00  0.00000000E+00  0.00000000E+00
  0.00000000E+00  0.00000000E+00  0.00000000E+00
  0.00000000E+00  0.00000000E+00  0.00000000E+00
  0.00000000E+00  0.00000000E+00  0.00000000E+00
  0.00000000E+00  0.00000000E+00  0.00000000E+00
  0.00000000E+00  0.00000000E+00  0.00000000E+00
  0.00000000E+00  0.00000000E+00  0.00000000E+00
  0.00000000E+00  0.00000000E+00  0.00000000E+00
  0.00000000E+00  0.00000000E+00  0.00000000E+00
  0.00000000E+00  0.00000000E+00  0.00000000E+00
  0.00000000E+00  0.00000000E+00  0.00000000E+00
  0.00000000E+00  0.00000000E+00  0.00000000E+00
  0.00000000E+00  0.00000000E+00  0.00000000E+00
