F  Ga Li
 1.0000000000000000
     5.0464288307283889    0.0000000000000000    0.0000000000000000
    -0.0468688024142423    5.3552727791708561    0.0000000000000000
    -2.2721933005416330   -0.0212526152124525    8.7772514780007835
 F   Ga  Li 
  13   4   1
Cartesian
 -1.1828164173869740  4.0969775546287419  6.1587920370275535
  2.2875834749061048  0.5305053514730176  7.4047716374442585
  1.1703750948975997  1.3228483944709768  2.4255162050342824
  1.6868320317151413  3.2140707504369970  7.3531917580578900
 -0.3554445326456051  2.9239052385040361  3.6967160185065970
 -0.0942469049198398  4.2703372936107753  0.9778926776835207
 -0.8694151680347482  2.6253384103086845  8.3320255441024447
  0.1271641564021581  1.4489747634381538  6.0010808219158092
  2.2986623827299009  2.3449062218679186  4.6344918187689164
 -0.8870658340238589  0.1778975598754440  3.8384526532556036
  1.6427819899320688  4.9407111913078268  4.6017715128976322
  3.5667824093243099  1.7832728035161269  0.8255805903179649
 -0.2675784350361495  5.3117766569516363  8.2999497774575079
  3.2551231581085975  3.9543972966235730  4.4454519165700459
  0.7160072771417929  1.5974914214367189  7.8644023952535047
 -1.8726506608463536  4.3084415305382393  7.9846199474313106
  0.7445793281702655  1.2206817007332793  4.1846583710991192
  0.0065883249755277  2.5346432411531521  1.6269878206581776
