Na2 Mo1 O2 F4                           
   1.00000000000000     
     4.9753505021924394    0.0266177541205456   -2.7478790362430550
    -3.2399150108371204    4.6279444099884852    0.0073455918852988
     0.0390861364895522    0.0443004593180346    6.0237569403815208
   Na   Mo   O    F 
     2     1     2     4
Direct
  0.0771537801661049  0.5279343993054257  0.1633152235971592
  0.6382123823355862  0.3178852232776169  0.4964988310351387
  0.0962914217136106  0.0338896518909772  0.6738910449097857
  0.4946106787694842  0.3263046899798829  0.8513687790811347
  0.1135940955106963  0.7953420106931398  0.8503803669463982
  0.6139118528812998  0.6970740471670808  0.3963315684352828
  0.9333925657287317  0.1633236405687113  0.8307204649821215
  0.9444710926229717  0.2399610228454185  0.4111610753782658
  0.1606440720430220  0.9079178234735120  0.4142923971214914
 
  0.00000000E+00  0.00000000E+00  0.00000000E+00
  0.00000000E+00  0.00000000E+00  0.00000000E+00
  0.00000000E+00  0.00000000E+00  0.00000000E+00
  0.00000000E+00  0.00000000E+00  0.00000000E+00
  0.00000000E+00  0.00000000E+00  0.00000000E+00
  0.00000000E+00  0.00000000E+00  0.00000000E+00
  0.00000000E+00  0.00000000E+00  0.00000000E+00
  0.00000000E+00  0.00000000E+00  0.00000000E+00
  0.00000000E+00  0.00000000E+00  0.00000000E+00
