Na1 Li2 Lu1 F6
1.0
   4.5274963378906241    0.0000000000000000   -2.6153292655944829
  -0.0313001039585595    4.8968535505193689   -0.0179375614970914
   0.0000000000000000    0.0000000000000000    5.2246265411376953
Na Li Lu F
1 2 1 6
direct
   0.6170244216918945    0.4984357655048370    0.6616689562797546 Na
   0.9509010314941406    0.4973596930503845    0.3284072577953339 Li
   0.9512398242950439    0.9963762164115906    0.3294424414634703 Li
   0.2856580317020416    0.9975228905677797    0.9958083033561707 Lu
   0.6388304233551025    0.7564319372177124    0.0366065353155136 F
   0.2441742867231369    0.2366990596055984    0.6411160230636597 F
   0.6380116939544678    0.2377857565879822    0.3097982406616211 F
   0.2447654455900192    0.7557306885719299    0.3097448945045471 F
   0.9717840552330017    0.2379761636257172    0.0358034335076808 F
   0.9697465896606445    0.7561413049697876    0.6414533853530883 F
