K2 Yb1 F5
1.0
   4.0601329803466797    0.0000000000000000   -1.2988060712814329
  -0.8540555691971216    5.4217278977958099   -2.6898748874664307
   0.0000000000000000    0.0000000000000000    6.9608941078186035
K Yb F
2 1 5
direct
   0.2585331797599792    0.0237887147814035    0.2321458458900452 K
   0.9094555974006653    0.6720924377441406    0.5372908115386962 K
   0.5836772918701172    0.3478200733661652    0.8842508196830750 Yb
   0.7148905396461487    0.2401330024003983    0.1459869295358658 F
   0.4524022936820983    0.4558198750019073    0.6229389309883118 F
   0.0838101208209991    0.3478177487850189    0.8840195536613464 F
   0.7158485054969788    0.7183920145034790    0.1478036046028137 F
   0.4510313868522644    0.9775489568710326    0.6211418509483337 F
