Ba Ca F  Sr
 1.0000000000000000
     4.2811880123696477    0.0000000000000000    0.0000000000000000
    -0.0111076548308779    6.0074435105863895    0.0000000000000000
     0.0001997621049871    0.0080313956286750    8.4362745178625040
 Ba  Ca  F   Sr 
   2   1   8   1
Cartesian
  3.1660816521280184  3.2569340353664895  5.4897229542766377
  1.0312853973636069  0.2521852954962064  7.7712927473546465
  1.0329310831131788  0.2508140459689916  3.4400841141584899
  1.0244277392411834  4.8609328551172188  5.4116835169618485
  3.1697455414373144  1.8215098655040893  7.8097681404716432
  1.0230271693761503  4.7337688150636383  1.5598672898960211
  3.1607820950135963  4.6895096370459832  7.8086598785861572
  3.1662234779555303  1.6175308160459470  3.3927529342010940
  1.0284452011005190  1.7633801589039102  1.5535160290928880
  3.1639135049254685  4.8922105485900289  3.3867912495757198
  1.0289106645566619  1.6477356803825365  5.4192165801680492
  3.1632369202002035  3.2447212331676041  1.4824531355461128
