Ba2 F4
1.0
   4.0826163291931152    0.0000000000000000   -0.0030526726040995
   0.0109282057557125    4.0943176338756597   -0.0075513110496104
   0.0000000000000000    0.0000000000000000    6.8082017898559570
Ba F
2 4
direct
   0.4543319642543793    0.8061143159866333    0.3190068006515503 Ba
   0.9544508457183838    0.3055024147033692    0.8056364059448242 Ba
   0.4541528820991516    0.3055262565612793    0.5614353418350220 F
   0.9546629190444946    0.8050019741058350    0.5619947314262390 F
   0.4543913900852203    0.8057261109352113    0.9266303181648254 F
   0.9546483159065247    0.3058239817619324    0.1970262676477432 F
