Li1 Zn1 Mo1 F7                          
   1.00000000000000     
     5.0129014684016679    0.1177494714302465   -0.0602838335294385
     0.5117860683651448    4.9478983666501577   -0.0183879296906989
    -0.0122345578540696   -0.0174228209682222    5.2375221380985675
   Li   Zn   Mo   F 
     1     1     1     7
Direct
  0.2685690384177467  0.1584033834939560  0.0630992354216428
  0.8563578907812123  0.1073858689746704  0.5598832519019674
  0.3137598728268335  0.5598714075256842  0.5627322616990158
  0.1529577468653196  0.8593039511152808  0.8018666242498869
  0.5463073728222788  0.2958080527454707  0.3243344853418023
  0.1432659981589846  0.8665770789550385  0.3311919448421801
  0.6252882894830223  0.7638881237881602  0.5604654869813468
  0.0628756412076107  0.3754742944985910  0.7835714659889009
  0.0605873677362963  0.3833582436954358  0.3336302659025179
  0.5496554792667278  0.2964790543074826  0.7977952309237228
 
  0.00000000E+00  0.00000000E+00  0.00000000E+00
  0.00000000E+00  0.00000000E+00  0.00000000E+00
  0.00000000E+00  0.00000000E+00  0.00000000E+00
  0.00000000E+00  0.00000000E+00  0.00000000E+00
  0.00000000E+00  0.00000000E+00  0.00000000E+00
  0.00000000E+00  0.00000000E+00  0.00000000E+00
  0.00000000E+00  0.00000000E+00  0.00000000E+00
  0.00000000E+00  0.00000000E+00  0.00000000E+00
  0.00000000E+00  0.00000000E+00  0.00000000E+00
  0.00000000E+00  0.00000000E+00  0.00000000E+00
