Cs F  K  Tl
 1.0000000000000000
     8.2385853479743236    0.0000000000000000    0.0000000000000000
     4.1367963675524058    7.1213784080004823    0.0000000000000000
     4.1404096228167253    2.3788449259147395    6.7127423020054833
 Cs  F   K   Tl 
   4   8   3   1
Cartesian
 13.0038024149066853  5.3973547933238928  4.7730168173910856
  6.8158038925408038  4.2079290381086416  1.4129292388909462
 10.9337531994541770  4.2123935528973568  1.4142503041317853
  8.8655705708571357  0.6479260014555485  1.4133559568675813
  8.8611205150795644  7.7526005467571961  6.2804315791187850
  4.7216100039960036  2.8643912545712764  3.1250670013058834
 10.7930410000960553  4.1257409375661638  6.3853381831186393
 13.0531595532607039  7.9318075301106949  6.4145146496673533
  8.9104009530347543  3.0445804729637880  3.2562598727881387
  6.9853966359401785  4.1564591840578551  6.4099357837277271
 10.7921143261502301  6.6413654592178526  3.1340738914812527
  6.9809722368368314  6.6761505067256781  3.1562016092307359
  8.8854380209134494  5.3970594671388410  4.7692057637319678
 10.9379443894628352  1.8392660721214593  4.7689893038863422
  4.7503438649453846  0.6554197330726098  1.4126763689788664
  6.8170898660104484  1.8375562537302044  4.7693149939313315
