Cs2 K1 Si1 F7                           
   1.00000000000000     
     6.0887877432895685    0.0147906735387038   -0.0316508362206176
    -0.0157046323606604    6.0829945946363377   -0.0260419322316151
     0.0129532240428676    0.0098056760858133    5.9126550286215247
   Cs   K    Si   F 
     2     1     1     7
Direct
  0.6536608086877941  0.7820087596349359  0.2825392990911313
  0.1534008553598444  0.2820526152321982  0.2825995875672436
  0.6529569054462444  0.2816489109743514  0.7837087679761972
  0.1529918312113470  0.7818025952763670  0.7824591865735284
  0.1545889612298353  0.7806860518310917  0.0695103187056745
  0.1516826061791921  0.7829762768422434  0.4956140190449435
  0.3541977672976402  0.5809152669911556  0.7804532385057268
  0.9520551510914458  0.9825698660266837  0.7844818701553227
  0.3534242352145963  0.9830767702983858  0.7833001086468507
  0.9520876827723046  0.5807453070351871  0.7815498723525003
  0.6532027307127356  0.2821712282338654  0.2819252356089965
 
  0.00000000E+00  0.00000000E+00  0.00000000E+00
  0.00000000E+00  0.00000000E+00  0.00000000E+00
  0.00000000E+00  0.00000000E+00  0.00000000E+00
  0.00000000E+00  0.00000000E+00  0.00000000E+00
  0.00000000E+00  0.00000000E+00  0.00000000E+00
  0.00000000E+00  0.00000000E+00  0.00000000E+00
  0.00000000E+00  0.00000000E+00  0.00000000E+00
  0.00000000E+00  0.00000000E+00  0.00000000E+00
  0.00000000E+00  0.00000000E+00  0.00000000E+00
  0.00000000E+00  0.00000000E+00  0.00000000E+00
  0.00000000E+00  0.00000000E+00  0.00000000E+00
