Li1 Mg2 Al2 H3 O2 F10
1.0
   5.1031036376953125    0.0000000000000000   -0.1044310331344603
  -0.2458982394182029    5.5034070194250715   -0.4931019544601439
   0.0000000000000000    0.0000000000000000    7.3998346328735352
Li Mg Al H O F
1 2 2 3 2 10
direct
   0.3266829550266266    0.9174156188964844    0.5919460058212280 Li
   0.8021556735038757    0.4676392674446107    0.0619469396770000 Mg
   0.3034052550792694    0.3247497379779816    0.3809368312358856 Mg
   0.3152579069137573    0.9381113648414612    0.0596779361367226 Al
   0.8044779896736145    0.4712447226047516    0.5791167020797729 Al
   0.8580749630928040    0.0033044007141143    0.9202061891555786 H
   0.0597015097737312    0.1797716319561005    0.8393343687057495 H
   0.5812345743179321    0.7192533612251282    0.3753233850002289 H
   0.0053612189367414    0.1239041015505791    0.9604097008705139 O
   0.5201677083969116    0.6296577453613281    0.4748956859111786 O
   0.9962485432624817    0.7470345497131349    0.6247687339782715 F
   0.1259170472621918    0.6573899388313293    0.0165437720716000 F
   0.1000826880335808    0.2795184552669525    0.6173253059387207 F
   0.4831883013248444    0.2583418786525726    0.1337892562150955 F
   0.1970064491033554    0.9806793332099916    0.2911988794803619 F
   0.4568331241607666    0.9522728919982910    0.8445015549659729 F
   0.6084594726562500    0.1818607747554779    0.5078626275062561 F
   0.9514943361282349    0.4436939060688019    0.3221469819545746 F
   0.6921701431274414    0.4618675112724304    0.8051866888999939 F
   0.6046630144119263    0.7747443914413453    0.1385061442852020 F
