H9 F9                                   
   1.00000000000000     
     5.9192739958788971    0.5146109497981949   -0.6710284854407699
     0.4231870806957036    3.4478849428991913   -0.3412102457260096
    -0.4168595883616425    0.1434030431590149    8.7699311494410708
   H    F 
     9     9
Direct
  0.0098163218032995  0.3748406062563556  0.1464914993482231
  0.3540222322712381  0.5724164203833636  0.9219548613470310
  0.6764773897927400  0.7780170957751011  0.6929387078802869
 -0.0107224623680380  0.0444252639441940  0.4854671694368902
  0.6754896143320721  0.2262382444250329  0.3561007464082358
  0.6928050988744326  0.5126580791255728  0.0232175612522019
  0.0126521172433298  0.7256034734588850  0.8153150088147175
  0.3381173797779495 -0.0347584478174759  0.5843746296857425
  0.3276840007486651  0.4718410295446854  0.2668968263464809
  0.5627524571671220  0.4093678597136126  0.2825710278643853
  0.1539357845525101  0.5632867831311729  0.2515718589972858
  0.8338811084446934 -0.0247296133020078  0.4485152587416369
  0.8946232315733306  0.2515164356617676  0.0734686434261310
  0.5324243945695707  0.6874751303415532  0.6409344400971112
  0.1985865142662102  0.1594558104811168  0.5385338151733792
  0.5500892119728644  0.7105047144925665  0.9823694332303848
  0.8720440149624482  0.9105490276941585  0.7651728688498918
  0.2092115818056182  0.4698579081889776  0.8806309383277494
 
  0.00000000E+00  0.00000000E+00  0.00000000E+00
  0.00000000E+00  0.00000000E+00  0.00000000E+00
  0.00000000E+00  0.00000000E+00  0.00000000E+00
  0.00000000E+00  0.00000000E+00  0.00000000E+00
  0.00000000E+00  0.00000000E+00  0.00000000E+00
  0.00000000E+00  0.00000000E+00  0.00000000E+00
  0.00000000E+00  0.00000000E+00  0.00000000E+00
  0.00000000E+00  0.00000000E+00  0.00000000E+00
  0.00000000E+00  0.00000000E+00  0.00000000E+00
  0.00000000E+00  0.00000000E+00  0.00000000E+00
  0.00000000E+00  0.00000000E+00  0.00000000E+00
  0.00000000E+00  0.00000000E+00  0.00000000E+00
  0.00000000E+00  0.00000000E+00  0.00000000E+00
  0.00000000E+00  0.00000000E+00  0.00000000E+00
  0.00000000E+00  0.00000000E+00  0.00000000E+00
  0.00000000E+00  0.00000000E+00  0.00000000E+00
  0.00000000E+00  0.00000000E+00  0.00000000E+00
  0.00000000E+00  0.00000000E+00  0.00000000E+00
