Sb2 Te1 F14                             
   1.00000000000000     
     5.5965648585304102    0.0719471492527548    0.1202062864694695
     0.4245373643504427    5.6066554496580459   -0.1088765696615836
    -0.0169702628710595    0.0122369544210868    9.4407551203796665
   Sb   Te   F 
     2     1    14
Direct
  0.9253154285286059  0.7955950979741637  0.3775812791580550
  0.6598600542698280  0.0612541724654768  0.0157834684584489
  0.1978723905153237  0.5234989651699455  0.7387907046099536
  0.6858635833947552  0.0292550835504536  0.4423188664497553
  0.9467263234534384  0.3181327694507960  0.6973611353896226
  0.3746820809637684  0.3450500953612070  0.5992181828809572
  0.1516256986193726  0.0240122262213601  0.3763751025202496
 -0.0002325643670423  0.7202313303079022  0.5868800982914538
  0.8520600129756067  0.8701541085850374  0.1686126365359448
  0.1653832325933719  0.5613480297793024  0.3131224955956984
  0.4893890450843762  0.2304507364677216  0.1644414534684085
  0.9026765641531959  0.2767791714703448  0.0174882271119356
  0.4051109703984353  0.7724007551041571  0.6965437613584200
  0.4804277705824440  0.2410502553781928  0.8731062939308334
  0.8565716614456147  0.8652132944932721  0.8832648533989992
  0.6997332843331462  0.5664359120692606  0.3752080520509199
  0.4422724985610242  0.8204183276885341  0.0176921821008666
 
  0.00000000E+00  0.00000000E+00  0.00000000E+00
  0.00000000E+00  0.00000000E+00  0.00000000E+00
  0.00000000E+00  0.00000000E+00  0.00000000E+00
  0.00000000E+00  0.00000000E+00  0.00000000E+00
  0.00000000E+00  0.00000000E+00  0.00000000E+00
  0.00000000E+00  0.00000000E+00  0.00000000E+00
  0.00000000E+00  0.00000000E+00  0.00000000E+00
  0.00000000E+00  0.00000000E+00  0.00000000E+00
  0.00000000E+00  0.00000000E+00  0.00000000E+00
  0.00000000E+00  0.00000000E+00  0.00000000E+00
  0.00000000E+00  0.00000000E+00  0.00000000E+00
  0.00000000E+00  0.00000000E+00  0.00000000E+00
  0.00000000E+00  0.00000000E+00  0.00000000E+00
  0.00000000E+00  0.00000000E+00  0.00000000E+00
  0.00000000E+00  0.00000000E+00  0.00000000E+00
  0.00000000E+00  0.00000000E+00  0.00000000E+00
  0.00000000E+00  0.00000000E+00  0.00000000E+00
