K2 Bi1 F7
1.0
   5.3419895172119141    0.0000000000000000    2.4727702140808105
   0.9601745975716656    5.1098100278651142   -2.0803232192993173
   0.0000000000000000    0.0000000000000000    7.0955958366394043
K Bi F
2 1 7
direct
   0.9754782915115356    0.2795128524303436    0.4712449014186859 K
   0.3069807887077331    0.9352070689201356    0.8142779469490051 K
   0.6602212786674500    0.6024694442749025    0.1037477031350136 Bi
   0.7719460725784302    0.8089624643325806    0.8798503279685974 F
   0.7981252074241638    0.8956564068794250    0.2835961580276490 F
   0.0306424815207720    0.3826024532318115    0.8424131274223328 F
   0.3574806451797485    0.4476391673088074    0.2822949886322022 F
   0.7892290949821470    0.4405037462711335    0.2745328247547150 F
   0.3410811424255371    0.8969212770462037    0.2827984988689424 F
   0.5544050931930542    0.3780283033847809    0.8460170626640320 F
