K2 Sb2 F8                               
   1.00000000000000     
     6.0061897321338549   -0.0055945690557331   -0.0135373645282138
    -0.0078543660285342    6.2630334853160630   -0.0009375091926350
     0.0054408661412139    0.0030611378131677    6.2721489787294020
   K    Sb   F 
     2     2     8
Direct
  0.1804776462788750  0.5137203172036474  0.5428641388924834
  0.1768659571017299  0.0131672441236848  0.0449325187795446
  0.6103803708484832  0.5185998056968555  0.0452506390249080
  0.7478849134625840  0.0125431720415022  0.5440902116270853
  0.3740861944690072  0.6744694017145173  0.8836041304047285
  0.8298721810780725  0.2440811591755387  0.3103775108769599
  0.9925680697724185  0.1662701626316254  0.6968857557370101
  0.3681927226519602  0.3595999489516106  0.1968413357312996
  0.5363643200509892  0.2855852413565248  0.8106386912533550
  0.8313485142915317  0.7786561800691676  0.7777261453149970
  0.9797434789945614  0.8506780017047305  0.3830284563971133
  0.5195874893581702  0.7513962364252986  0.2769238574612269
 
  0.00000000E+00  0.00000000E+00  0.00000000E+00
  0.00000000E+00  0.00000000E+00  0.00000000E+00
  0.00000000E+00  0.00000000E+00  0.00000000E+00
  0.00000000E+00  0.00000000E+00  0.00000000E+00
  0.00000000E+00  0.00000000E+00  0.00000000E+00
  0.00000000E+00  0.00000000E+00  0.00000000E+00
  0.00000000E+00  0.00000000E+00  0.00000000E+00
  0.00000000E+00  0.00000000E+00  0.00000000E+00
  0.00000000E+00  0.00000000E+00  0.00000000E+00
  0.00000000E+00  0.00000000E+00  0.00000000E+00
  0.00000000E+00  0.00000000E+00  0.00000000E+00
  0.00000000E+00  0.00000000E+00  0.00000000E+00
