K1 Gd1 F4
1.0
   3.2914099693298340    0.0000000000000000   -2.1364493370056152
  -0.0245120572126307    3.9138848920774962   -0.0117342416197057
   0.0000000000000000    0.0000000000000000    7.2499361038208008
K Gd F
1 1 4
direct
   0.1050527542829514    0.9659290313720704    0.4530515968799592 K
   0.1050453782081604    0.4663260877132416    0.9529514908790589 Gd
   0.8114209175109863    0.4658692777156830    0.1596793234348297 F
   0.3120729029178619    0.9661202430725099    0.1591509133577347 F
   0.3996547162532806    0.4652625322341919    0.7467340826988221 F
   0.8987781405448914    0.9658902287483216    0.7476392388343812 F
