K1 Ni2 F5                               
   1.00000000000000     
     3.9155073844005983    0.0116414176029474    1.2690012087870191
    -0.0074958717492391    3.9003305453615931   -0.0126980022831594
     0.0383515877988912    0.0139238055879385    6.5550334637936203
   K    Ni   F 
     1     2     5
Direct
  0.9872856414228506  0.9686282142979125  0.2290132893079272
  0.3271854493511027  0.4690394004914401  0.5492687687188383
  0.6472370649864019  0.4675543709771228  0.9085882915712608
  0.8154872500051299  0.4682234535183760  0.5729883444614998
  0.1593764161231962  0.4684576289933505  0.8844341677567406
  0.3358706188245486  0.9689939849367429  0.5314617709207822
  0.6365268936940693  0.9674641750935630  0.9270909966008263
  0.4869939320845907  0.4677943913127692  0.2287069655622563
 
  0.00000000E+00  0.00000000E+00  0.00000000E+00
  0.00000000E+00  0.00000000E+00  0.00000000E+00
  0.00000000E+00  0.00000000E+00  0.00000000E+00
  0.00000000E+00  0.00000000E+00  0.00000000E+00
  0.00000000E+00  0.00000000E+00  0.00000000E+00
  0.00000000E+00  0.00000000E+00  0.00000000E+00
  0.00000000E+00  0.00000000E+00  0.00000000E+00
  0.00000000E+00  0.00000000E+00  0.00000000E+00
