K2 Sb1 F7                               
   1.00000000000000     
     5.8246602325785739   -0.0830050404947680    0.0661723591187414
     0.6874972096213908    5.8044912281724717    0.0645007475266188
    -0.0134335021424373    0.0004412453807388    7.0893407348236295
   K    Sb   F 
     2     1     7
Direct
  0.6028864525966476  0.8599566539413396  0.5446676788108746
  0.1836954458447638  0.4408684203496806  0.0447690701157605
  0.1377053711938925  0.3946616265905886  0.5450095924419693
  0.2834058343959917  0.1702568793414417  0.7306681294330318
  0.3277592737161783  0.5821045878852877  0.3750555418434460
  0.9147976156057744  0.5456920702146184  0.3615800927539559
  0.2878440181499588  0.1721232399721611  0.3616221883706598
  0.9123423917771717  0.5394810237347144  0.7303386441671205
  0.3243037469022061  0.5812759314106144  0.7118568504440822
  0.9103369239875277  0.1679230792138581  0.5449413202221001
 
  0.00000000E+00  0.00000000E+00  0.00000000E+00
  0.00000000E+00  0.00000000E+00  0.00000000E+00
  0.00000000E+00  0.00000000E+00  0.00000000E+00
  0.00000000E+00  0.00000000E+00  0.00000000E+00
  0.00000000E+00  0.00000000E+00  0.00000000E+00
  0.00000000E+00  0.00000000E+00  0.00000000E+00
  0.00000000E+00  0.00000000E+00  0.00000000E+00
  0.00000000E+00  0.00000000E+00  0.00000000E+00
  0.00000000E+00  0.00000000E+00  0.00000000E+00
  0.00000000E+00  0.00000000E+00  0.00000000E+00
