Rb4 Nd1 F6                              
   1.00000000000000     
     7.1841472671762485    0.0067500274662733    1.1311517139252667
     1.7136942925693779    5.9424951603478915   -3.7266951418746945
     0.0262149397396878   -0.0208215327447323    7.2172995771776094
   Rb   Nd   F 
     4     1     6
Direct
  0.5801932688612877  0.4610714890815023  0.2892577180654671
  0.0811718308075164  0.6403932517960705  0.1084758721035813
  0.5800285617977415  0.1116430531610437  0.6378044525963876
  0.0805006434926268  0.2912081799628969  0.4544217722205989
  0.5822873226798827  0.7920405266123859  0.9559598963455985
  0.4068978938840482  0.5499191939942321  0.7612032802307891
  0.3783074332365924  0.8507144107479956  0.2721949189983345
  0.7872884794499574  0.4754714230492736  0.8938399020925157
  0.4114018711830707  0.1360642293279347  0.0435176848196907
  0.7556576899026657 -0.0122104285715234  0.2005845441123297
  0.7518282644254127  0.7059573735917314  0.6107071499022573
 
  0.00000000E+00  0.00000000E+00  0.00000000E+00
  0.00000000E+00  0.00000000E+00  0.00000000E+00
  0.00000000E+00  0.00000000E+00  0.00000000E+00
  0.00000000E+00  0.00000000E+00  0.00000000E+00
  0.00000000E+00  0.00000000E+00  0.00000000E+00
  0.00000000E+00  0.00000000E+00  0.00000000E+00
  0.00000000E+00  0.00000000E+00  0.00000000E+00
  0.00000000E+00  0.00000000E+00  0.00000000E+00
  0.00000000E+00  0.00000000E+00  0.00000000E+00
  0.00000000E+00  0.00000000E+00  0.00000000E+00
  0.00000000E+00  0.00000000E+00  0.00000000E+00
