Cs2 Na1 As1 F6
1.0
   4.3657612800598153    0.0000000000000000   -3.3286540508270255
   0.0377352843949453    6.4527547879649818   -3.2404072284698473
   0.0000000000000000    0.0000000000000000    6.7743124961853027
Cs Na As F
2 1 1 6
direct
   0.1045956909656525    0.7324011325836182    0.9858907461166382 Cs
   0.1046953350305557    0.7306996583938599    0.4845804572105408 Cs
   0.6044631600379944    0.2311152368783951    0.4852409958839417 Na
   0.6045160889625549    0.2314121723175049    0.9856534600257874 As
   0.1383296400308609    0.2319618612527847    0.7533754110336304 F
   0.6039663553237915    0.4628100991249084    0.8701023459434509 F
   0.6025073528289795    0.0011091342894360    0.0997054651379585 F
   0.0710449069738388    0.2311088889837265    0.2173938900232315 F
   0.6061424612998962    0.0016173535259441    0.6448991298675537 F
   0.6054847240447998    0.4616226851940155    0.3278316855430603 F
