Li3 Fe1 F6                              
   1.00000000000000     
     5.0453210670708479    0.0027007941318221    0.0134460731238229
    -2.5290013358739736    3.7105277106388632   -2.3218621017429051
     0.0009431696024588    0.1524291870205002    5.7515024948854396
   Li   Fe   F 
     3     1     6
Direct
  0.1276792426151322  0.5778361889533672  0.3587609124861230
  0.6483848449564186  0.6167029868578563  0.9146492601238728
  0.9480227519178508  0.2151541517200116  0.8103164550817559
  0.3177312524693209  0.9556668314581368  0.9239907139100921
  0.3623222642147208  0.7528836534599065  0.1171163794449060
  0.7136345015381526  0.3965459104526590  0.1185678696573085
  0.0698855639195313  0.1033756746865779  0.1189759586429493
  0.5331858610138851  0.7904341979327163  0.6950633934454785
  0.9367700358282959  0.5130219751583658  0.6943614389982030
  0.2570449586122340  0.1093359791308130  0.6960706145395721
 
  0.00000000E+00  0.00000000E+00  0.00000000E+00
  0.00000000E+00  0.00000000E+00  0.00000000E+00
  0.00000000E+00  0.00000000E+00  0.00000000E+00
  0.00000000E+00  0.00000000E+00  0.00000000E+00
  0.00000000E+00  0.00000000E+00  0.00000000E+00
  0.00000000E+00  0.00000000E+00  0.00000000E+00
  0.00000000E+00  0.00000000E+00  0.00000000E+00
  0.00000000E+00  0.00000000E+00  0.00000000E+00
  0.00000000E+00  0.00000000E+00  0.00000000E+00
  0.00000000E+00  0.00000000E+00  0.00000000E+00
