Rb3 Tb1 F7                              
   1.00000000000000     
     5.8478669345728536   -0.0529570026314298   -3.1603332380602382
    -1.5620110424345353    5.6079142137337907   -3.2009458716302541
     0.1041524131854741    0.1737676649869752    7.2719876273876398
   Rb   Tb   F 
     3     1     7
Direct
  0.3289306467830212  0.5634550313829998  0.9924349185360617
  0.0764930815976861  0.8033140996673860  0.4822676367681655
  0.8265570540348749  0.0610055279888111  0.9918816662863797
  0.5291554461840963  0.2630325847792681  0.3939385257505450
  0.3251489755765122  0.0508173597337747  0.9781951691382085
  0.7054441306534888  0.9742963106331576  0.2806583422136990
  0.7266493983385723  0.4599109798469599  0.3301849005778572
  0.2366791736826508  0.4304027378690343  0.2693608116692213
  0.2700858622265533  0.0006620438597912  0.3309888054935198
  0.5463349788492596  0.5730323124763612  0.7208403344461172
  0.8346462536826096  0.2922095656202601  0.7290409136134424
 
  0.00000000E+00  0.00000000E+00  0.00000000E+00
  0.00000000E+00  0.00000000E+00  0.00000000E+00
  0.00000000E+00  0.00000000E+00  0.00000000E+00
  0.00000000E+00  0.00000000E+00  0.00000000E+00
  0.00000000E+00  0.00000000E+00  0.00000000E+00
  0.00000000E+00  0.00000000E+00  0.00000000E+00
  0.00000000E+00  0.00000000E+00  0.00000000E+00
  0.00000000E+00  0.00000000E+00  0.00000000E+00
  0.00000000E+00  0.00000000E+00  0.00000000E+00
  0.00000000E+00  0.00000000E+00  0.00000000E+00
  0.00000000E+00  0.00000000E+00  0.00000000E+00
