Pb2 F4
1.0
   4.2516183853149414    0.0000000000000000    0.0031224093399932
   0.0045973814411233    4.2500809599724132    0.0010673246579246
   0.0000000000000000    0.0000000000000000    6.0739836692810059
Pb F
2 4
direct
   0.7577161192893982    0.0360414423048496    0.5549814701080322 Pb
   0.2588499188423157    0.5380384922027587    0.0550682991743088 Pb
   0.2589551210403442    0.0357406176626682    0.3052537739276886 F
   0.7581956982612610    0.5369363427162170    0.8071827888488770 F
   0.7568588852882385    0.5372383594512938    0.3069266974925995 F
   0.2590889036655426    0.0352975316345692    0.8047264218330383 F
