Na4 Li1 F5
1.0
   4.1321401596069336    0.0000000000000000   -1.8571085929870599
  -2.0656028441119929    5.0524969372930686    0.9413347840309129
   0.0000000000000000    0.0000000000000000    5.5318703651428223
Na Li F
4 1 5
direct
   0.7253834605216980    0.7464914917945862    0.8935011029243468 Na
   0.5277959704399109    0.1485781073570251    0.0993424803018570 Na
   0.9275561571121216    0.3453353643417358    0.6982479691505432 Na
   0.3261251747608185    0.5502615571022034    0.2950605154037476 Na
   0.1256362795829773    0.9472894668579102    0.4963080585002899 Li
   0.8338033556938171    0.5597876906394958    0.2995786964893341 F
   0.0308529101312160    0.1432548761367798    0.1095045804977417 F
   0.2224521934986115    0.7512879967689514    0.8838812708854674 F
   0.4194843769073486    0.3351019620895386    0.6933892369270325 F
   0.6268661022186279    0.9472796916961671    0.4962997436523437 F
