Na4 Mg4 F12
1.0
   6.2865233421325684    0.0000000000000000   -1.4016350507736224
   0.4106120065650313    5.3650940912959930   -0.0093152280896898
   0.0000000000000000    0.0000000000000000    7.1467967033386230
Na Mg F
4 4 12
direct
   0.4423010349273682    0.5076928138732910    0.9114120006561278 Na
   0.7603472471237183    0.0332406572997570    0.6722722649574279 Na
   0.2606062293052673    0.0331960581243038    0.6716403365135192 Na
   0.0786542072892189    0.5598230361938477    0.4315817058086395 Na
   0.9352140426635742    0.5196326971054077    0.8733997941017150 Mg
   0.5853967666625977    0.5469152331352234    0.4695144295692443 Mg
   0.2605142593383789    0.0341928154230118    0.1715844869613647 Mg
   0.7605844140052795    0.0340449102222919    0.1719517558813095 Mg
   0.1765344589948654    0.2623526453971863    0.9419945478439330 F
   0.4851562082767487    0.8777885437011719    0.0534445904195309 F
   0.4153967797756195    0.3411345183849335    0.5943390727043151 F
   0.7689069509506226    0.8062365651130675    0.3938698768615722 F
   0.8681116700172424    0.3675804138183594    0.5960262417793273 F
   0.1062822788953781    0.7259019613265991    0.7498072981834411 F
   0.3448816239833832    0.8044898509979248    0.4002625346183776 F
   0.5311763286590576    0.2861681282520294    0.2532747089862823 F
   0.9895664453506470    0.7818888425827026    0.0904770568013191 F
   0.0370958372950554    0.1886342465877533    0.2903882563114166 F
   0.7524404525756836    0.2614930272102356    0.9493268728256224 F
   0.6523600816726685    0.6983388662338257    0.7468305230140685 F
