Li7 Sc2 F11                             
   1.00000000000000     
     5.3649539412213736   -0.0352366441498232    0.7274800107665786
    -0.9627151507362274    5.3422500028173738   -0.1677854247645895
     0.1505451195928799   -0.0393728216409818    7.7947157398778764
   Li   Sc   F 
     7     2    11
Direct
  0.4585134702732238  0.8479340570119296  0.1564537844475233
  0.3420111073721490  0.7171533580540550  0.5183994203247996
  0.2532114565445784  0.4141267614964247  0.9413241663222619
  0.4440073946636841 -0.0078978816622103  0.8166289193154335
  0.7522859062548730  0.2668839089971716  0.0802133678260407
  0.2223137045166136  0.2771458955420764  0.2749485437864321
  0.1149554474900888  0.1589887283056653  0.6408542736494582
  0.7788864463810539  0.5727677028984612  0.7133722888586296
  0.8660706667176821  0.7060085938400052  0.3515998774855509
  0.9191788587239447  0.2896538949941143  0.8433422591795271
  0.2100424791822540  0.9452062543747354  0.3811379688692947
  0.3963426903934693  0.1589859739848471  0.0526557142146809
  0.0433675327490846  0.4906176828551166  0.1547795263788787
  0.5115183681364378  0.5541909263327487  0.2902064017263692
  0.6557888467638736  0.8870646538366707  0.5976952751976329
  0.1240652971690795  0.8294594988072870  0.7264965466359085
  0.7693383896849421  0.0150009511603305  0.2292768173565580
  0.4330508450871374  0.3144123073443780  0.7180058623698216
  0.5162628843417282  0.7124870376828869  0.9250634506987977
  0.0709968528978844  0.4297188884041402  0.5022061381643992
 
  0.00000000E+00  0.00000000E+00  0.00000000E+00
  0.00000000E+00  0.00000000E+00  0.00000000E+00
  0.00000000E+00  0.00000000E+00  0.00000000E+00
  0.00000000E+00  0.00000000E+00  0.00000000E+00
  0.00000000E+00  0.00000000E+00  0.00000000E+00
  0.00000000E+00  0.00000000E+00  0.00000000E+00
  0.00000000E+00  0.00000000E+00  0.00000000E+00
  0.00000000E+00  0.00000000E+00  0.00000000E+00
  0.00000000E+00  0.00000000E+00  0.00000000E+00
  0.00000000E+00  0.00000000E+00  0.00000000E+00
  0.00000000E+00  0.00000000E+00  0.00000000E+00
  0.00000000E+00  0.00000000E+00  0.00000000E+00
  0.00000000E+00  0.00000000E+00  0.00000000E+00
  0.00000000E+00  0.00000000E+00  0.00000000E+00
  0.00000000E+00  0.00000000E+00  0.00000000E+00
  0.00000000E+00  0.00000000E+00  0.00000000E+00
  0.00000000E+00  0.00000000E+00  0.00000000E+00
  0.00000000E+00  0.00000000E+00  0.00000000E+00
  0.00000000E+00  0.00000000E+00  0.00000000E+00
  0.00000000E+00  0.00000000E+00  0.00000000E+00
