Li2 Zn5 F12
1.0
   5.0008401870727530    0.0000000000000000   -2.4904270172119145
  -2.8543019010879509    4.6843400385317810    0.9835569858551030
   0.0000000000000000    0.0000000000000000    9.5350036621093750
Li Zn F
2 5 12
direct
   0.3178347647190094    0.4109363853931427    0.3624720573425293 Li
   0.2446266561746597    0.8669117689132690    0.8268241286277771 Li
   0.9783048629760742    0.3179468512535095    0.9913854002952576 Zn
   0.4837195277214050    0.5716983675956726    0.7755625247955322 Zn
   0.0220452938228846    0.6940124630928041    0.4067281782627106 Zn
   0.7619511485099792    0.1327545046806335    0.5966842770576477 Zn
   0.4588420689105988    0.9770218729972839    0.1987114548683167 Zn
   0.3512273132801056    0.1020966097712517    0.4727162718772888 F
   0.8265771865844727    0.2479000091552734    0.3896671831607819 F
   0.6536384224891663    0.7169763445854187    0.3006390631198883 F
   0.3412449061870575    0.5594193339347839    0.9348787069320679 F
   0.5826876759529114    0.1171635836362839    0.0283649004995823 F
   0.9037142395973206    0.6385581493377686    0.8974299430847168 F
   0.6803406476974487    0.0327053591609001    0.7963631153106689 F
   0.1968138664960861    0.1576880216598511    0.1583592444658279 F
   0.0214757714420557    0.5818156599998474    0.6252763271331787 F
   0.4950115382671356    0.6875628829002380    0.5607388615608215 F
   0.1727245599031448    0.1581230163574219    0.7116546034812927 F
   0.1176927313208580    0.6333138942718506    0.2359091341495514 F
