Rb3 Pr1 F6
1.0
   4.0283770561218262    0.0000000000000000    0.0006735725328332
   0.0048107753861734    6.6363274303396000    3.5865015983581547
   0.0000000000000000    0.0000000000000000    7.6938247680664062
Rb Pr F
3 1 6
direct
   0.6166698336601257    0.5029317736625671    0.6175100207328795 Rb
   0.6162663102149963    0.0034772173967212    0.6161845326423644 Rb
   0.6173309087753296    0.5042101740837096    0.1177526414394379 Rb
   0.1159523949027061    0.0032151637133211    0.1170584484934807 Pr
   0.1151853799819946    0.1542653739452362    0.3243017494678497 F
   0.6172046661376953    0.1014495044946671    0.9258723258972167 F
   0.1142707616090775    0.6435485482215881    0.3228187263011933 F
   0.6145278811454773    0.9038881659507751    0.3075504004955292 F
   0.1188403666019440    0.3621394336223602    0.9126955270767211 F
   0.1186974868178368    0.8501228690147399    0.9097320437431335 F
