Cs F  K  Pb Sc Sn
 1.0000000000000000
     6.3417794138671431    0.0000000000000000    0.0000000000000000
     0.4204016492024916    6.7166557986653306    0.0000000000000000
    -0.0895914431829090   -0.0187048067023069    9.1435620377026101
 Cs  F   K   Pb  Sc  Sn 
   1  13   2   1   2   1
Cartesian
  3.4402235052091985  0.5228163020241082  0.6679951790270454
  2.7409234367108160  6.2949815729324587  6.9552611875338437
  1.1590509769666284  2.6611207522455218  8.2839055072043202
  4.0320628709189972  4.8632228386312528  5.1836184349045080
  6.0108197504491265  5.2431055511579263  8.3712110397234056
  6.0777721800622269  5.1547717635524153  2.1216183435013880
  5.0657566745670897  2.9232022534390198  0.5714923154368796
  2.6078557718352817  6.2325397251401986  3.4771523573486696
  6.0662990811870117  6.4331093820221570  5.1421004288162404
  1.5507524078240944  1.3452643800713862  5.1678358156040334
  4.1455500021061740  1.3661217915103325  3.7453775881361033
  4.2378461268633139  1.4296949847371727  6.6112454306809338
  2.3124561058667887  4.8321161627954705  0.6423307783286849
  1.2558524667180313  2.5955599682849764  2.0348792009511549
  3.5816224770377461  3.8411831590663761  7.5708798050341510
  3.6449207576186944  3.8022447790368559  2.8171463152505809
  0.2123734161244335  0.6187372278327105  7.1936153083882921
  3.3881617289996546  0.1602033963577955  5.2045131426416846
  0.4972842183491974  3.9351401172303220  0.6415337857564438
  0.2639490531294537  0.5782532703385773  3.2861463668950299
