Rb1 H1 F2                               
   1.00000000000000     
     3.6572549557259335    0.0030606317385404    0.0022523848544932
    -0.0044527825027853    3.6496927112364741   -0.0010598559038086
    -0.0010992235820401   -0.0012279521243657    5.1762835352272223
   Rb   H    F 
     1     1     2
Direct
  0.9224811075673457  0.5672068185498897  0.1836252609418275
  0.4216620217422095  0.0681669370031168  0.6834675219773159
  0.4214017988401606  0.0684514678162067  0.4606826900553584
  0.4218762149052463  0.0679571227005993  0.9054420048239603
 
  0.00000000E+00  0.00000000E+00  0.00000000E+00
  0.00000000E+00  0.00000000E+00  0.00000000E+00
  0.00000000E+00  0.00000000E+00  0.00000000E+00
  0.00000000E+00  0.00000000E+00  0.00000000E+00
