Li2 Mn1 F4                              
   1.00000000000000     
     2.7491684013367199    0.0135955736212141   -0.8158223445331132
    -0.6061242816086585    4.6855430514987209   -1.9425844214406460
     0.1361748294836017   -0.1141986378300945    5.5059835687566636
   Li   Mn   F 
     2     1     4
Direct
  0.0652713933897896  0.1753753826410855  0.7075809598629256
  0.6726490070606742  0.8463678518639571  0.9267667377414069
  0.3696319908293706  0.5104076819147314  0.3170388518377961
  0.9946897513618941  0.4630606187080834  0.5660571556346208
  0.7448472572301608  0.5573162007660916  0.0668650545692740
  0.4995751171737098  0.9259272059363730  0.5773885474685441
  0.2390044267767848  0.0949262958553578  0.0569377229762418
 
  0.00000000E+00  0.00000000E+00  0.00000000E+00
  0.00000000E+00  0.00000000E+00  0.00000000E+00
  0.00000000E+00  0.00000000E+00  0.00000000E+00
  0.00000000E+00  0.00000000E+00  0.00000000E+00
  0.00000000E+00  0.00000000E+00  0.00000000E+00
  0.00000000E+00  0.00000000E+00  0.00000000E+00
  0.00000000E+00  0.00000000E+00  0.00000000E+00
