Rb2 Sb2 F8
1.0
   5.8970775604248056    0.0000000000000000    0.0086457785218955
  -0.2760023996530767    6.8438736548772363   -0.0113311093300583
   0.0000000000000000    0.0000000000000000    5.8260879516601562
Rb Sb F
2 2 8
direct
   0.1044503673911095    0.6583056449890138    0.8985234498977661 Rb
   0.0796895325183868    0.1424701511859894    0.4007940590381622 Rb
   0.6303504705429077    0.6131211519241334    0.3694219589233398 Sb
   0.5525894761085510    0.1882012486457825    0.8745441436767578 Sb
   0.3634841144084930    0.3686809539794922    0.7029761672019958 F
   0.3918035328388214    0.4220645427703857    0.1772205084562302 F
   0.9534044861793519    0.7436676025390626    0.4269452691078186 F
   0.7927912473678589    0.3735812306404114    0.6865997910499573 F
   0.6282888054847717    0.7715395689010620    0.0792818814516068 F
   0.2283287495374680    0.0585677102208138    0.9278335571289062 F
   0.5545736551284790    0.0284077152609825    0.5812537074089050 F
   0.8226143121719361    0.4311284720897675    0.2024452090263367 F
