Y3 F9                                   
   1.00000000000000     
     5.1841886753246555   -0.0797857894202551    1.6222323563779337
     0.3288994070035628    5.1234611093544178    1.9055117035922053
     0.0033480120190370   -0.0017054515709226    6.3298705302669820
   Y    F 
     3     9
Direct
  0.6105188903856585  0.0369224088882543  0.7958153872932441
  0.2779360592320660  0.8047005071513870  0.4630974972948419
  0.9072429191997986  0.3991247541387855  0.1558024662784603
  0.3184700730521478  0.7987048611537096  0.8109729483017345
  0.8388909418333791  0.1811778169312135  0.9521669820191586
  0.2828728850664577  0.1519081783623550  0.0922147816159003
  0.5849457433652427  0.7073569274649210  0.1589882870306986
  0.9045665874013130  0.6813946839998319  0.7767498079809587
  0.4810751629039302  0.4323460107706430  0.6100171415304201
  0.5923735895409690  0.0791590146408881  0.4061423123506704
  0.0528502489668054  0.6499743213286260  0.3013126120497133
  0.9922128703528343  0.1472291780881911  0.5001928080730658
 
  0.00000000E+00  0.00000000E+00  0.00000000E+00
  0.00000000E+00  0.00000000E+00  0.00000000E+00
  0.00000000E+00  0.00000000E+00  0.00000000E+00
  0.00000000E+00  0.00000000E+00  0.00000000E+00
  0.00000000E+00  0.00000000E+00  0.00000000E+00
  0.00000000E+00  0.00000000E+00  0.00000000E+00
  0.00000000E+00  0.00000000E+00  0.00000000E+00
  0.00000000E+00  0.00000000E+00  0.00000000E+00
  0.00000000E+00  0.00000000E+00  0.00000000E+00
  0.00000000E+00  0.00000000E+00  0.00000000E+00
  0.00000000E+00  0.00000000E+00  0.00000000E+00
  0.00000000E+00  0.00000000E+00  0.00000000E+00
