Cs3 H2 F5                               
   1.00000000000000     
     6.6162873782370388   -0.0143250947540813   -2.7415272899366530
    -2.3015804601751206    5.5280918666840124    0.4742825936106358
    -0.1757762866733936   -0.0647452149815269    6.1526797676032698
   Cs   H    F 
     3     2     5
Direct
  0.0924519119869045  0.5610284764339000  0.1395277920841675
  0.5891747214642026  0.8313136732541097  0.9157371587410522
  0.6046141154422314  0.3228600586560922  0.4397969045341981
  0.3989270531512810  0.2892435157228001  0.9069356183467390
  0.0749144930561566  0.8796056563961885  0.4836146385418989
  0.0726698121091633  0.0109409958775573  0.3375200927721022
  0.5407508837359519  0.8023866061389284  0.4055025495859758
  0.5885965055884116  0.3213190717129373  0.9175946167582010
  0.2549929805286103  0.2831099083639333  0.9221747291425804
  0.0812081766331475  0.7278659043711773  0.6153886008566485
 
  0.00000000E+00  0.00000000E+00  0.00000000E+00
  0.00000000E+00  0.00000000E+00  0.00000000E+00
  0.00000000E+00  0.00000000E+00  0.00000000E+00
  0.00000000E+00  0.00000000E+00  0.00000000E+00
  0.00000000E+00  0.00000000E+00  0.00000000E+00
  0.00000000E+00  0.00000000E+00  0.00000000E+00
  0.00000000E+00  0.00000000E+00  0.00000000E+00
  0.00000000E+00  0.00000000E+00  0.00000000E+00
  0.00000000E+00  0.00000000E+00  0.00000000E+00
  0.00000000E+00  0.00000000E+00  0.00000000E+00
