Bi2 F6                                  
   1.00000000000000     
     3.9850118809900699   -0.0085510434384196   -1.4117882161750204
    -2.3826090549997159    5.7392941305564191   -0.4661520260246504
    -0.0146825140155650   -0.0004659491819430    6.2133991586625843
   Bi   F 
     2     6
Direct
  0.4980376782730698  0.1044833059805536  0.7530325429845752
  0.4986737568056137  0.6044839606583865  0.2529150613475437
  0.8312259511557685  0.4376498563803326  0.0867735791317438
  0.1652368718590321  0.7717738561117182  0.4186603356267635
  0.4979525213395448  0.8546196203133697  0.0030120587659993
  0.4983468158887128  0.3551922959777442  0.5034040625573332
  0.1652226927100008  0.2709495660195830  0.9200123965302801
  0.8318475461776995  0.9389212988293846  0.5868033993672445
 
  0.00000000E+00  0.00000000E+00  0.00000000E+00
  0.00000000E+00  0.00000000E+00  0.00000000E+00
  0.00000000E+00  0.00000000E+00  0.00000000E+00
  0.00000000E+00  0.00000000E+00  0.00000000E+00
  0.00000000E+00  0.00000000E+00  0.00000000E+00
  0.00000000E+00  0.00000000E+00  0.00000000E+00
  0.00000000E+00  0.00000000E+00  0.00000000E+00
  0.00000000E+00  0.00000000E+00  0.00000000E+00
