Cs2 As1 F7                              
   1.00000000000000     
     5.5870749526349037   -0.1231031837426856   -3.2455188097423173
    -0.1264598083404953    5.2960756999040655   -0.0242588765693232
    -0.0260522376669302   -0.0688111803048592    6.4842962692228463
   Cs   As   F 
     2     1     7
Direct
  0.3223513834130435  0.2414752588494178  0.3674261371114970
  0.0091812528654692  0.8610789263943872  0.7306303617356977
  0.6704922582903902  0.6206698505519709  0.0592696829510549
  0.7236069085969481  0.3878021934744090  0.8684151078375291
  0.5361576575504861  0.8022020712571969  0.7935840339138435
  0.4574836849546351  0.7300002837859219  0.1652957658767175
  0.0056522393095285  0.6614119211329916  0.1478704936485139
  0.3905325996925563  0.3993601921437540  0.9067241527277717
  0.7924787688659507 -0.0634393844129417  0.2177647094363881
  0.7908041327524803  0.4366876773586292  0.3208807669549523
 
  0.00000000E+00  0.00000000E+00  0.00000000E+00
  0.00000000E+00  0.00000000E+00  0.00000000E+00
  0.00000000E+00  0.00000000E+00  0.00000000E+00
  0.00000000E+00  0.00000000E+00  0.00000000E+00
  0.00000000E+00  0.00000000E+00  0.00000000E+00
  0.00000000E+00  0.00000000E+00  0.00000000E+00
  0.00000000E+00  0.00000000E+00  0.00000000E+00
  0.00000000E+00  0.00000000E+00  0.00000000E+00
  0.00000000E+00  0.00000000E+00  0.00000000E+00
  0.00000000E+00  0.00000000E+00  0.00000000E+00
