K2 H6 F8
1.0
   5.2161107063293457    0.0000000000000000    0.6087505221366882
  -1.6059343164593689    6.1929160555821960   -0.1384032666683186
   0.0000000000000000    0.0000000000000000    6.0651307106018066
K H F
2 6 8
direct
   0.3387733399868011    0.5306059122085571    0.8200999498367310 K
   0.0878614485263824    0.0153667610138655    0.3256751298904419 K
   0.7540982365608215    0.2632347047328949    0.0596688017249107 H
   0.8948909044265747    0.4814214706420898    0.4665500819683075 H
   0.5423979759216309    0.7221364378929138    0.3025112152099609 H
   0.6037704944610596    0.4435906112194061    0.2599689662456512 H
   0.8678803443908691    0.8462647795677186    0.8304907679557800 H
   0.5452705621719360    0.0568636581301689    0.6772558093070984 H
   0.9252786040306091    0.2305379807949066    0.0276973880827427 F
   0.5341954231262207    0.3290927708148956    0.1378342062234879 F
   0.0297786612063646    0.4093765616416931    0.5042861104011536 F
   0.9727140069007874    0.7715880870819091    0.9172972440719604 F
   0.4180165529251099    0.1458208113908768    0.6491575241088867 F
   0.7058447599411011    0.9205092191696167    0.6952787637710571 F
   0.4438225030899048    0.7958359122276306    0.2204405069351196 F
   0.6894523501396179    0.5803809165954590    0.3920310437679291 F
