Li1 As1 F6
1.0
   4.8451485633850098    0.0000000000000000   -0.6046810150146483
   1.0392129452699099    4.2099002729197217   -2.3223614692687997
   0.0000000000000000    0.0000000000000000    5.1646585464477539
Li As F
1 1 6
direct
   0.4939110875129700    0.3265987634658814    0.1051111370325089 Li
   0.9935427308082581    0.8269603252410889    0.1055509746074677 As
   0.2166975587606430    0.4738388061523438    0.8314447402954102 F
   0.7652944922447206    0.5949836373329163    0.1074343919754029 F
   0.2170116454362869    0.7460663914680481    0.3785509169101716 F
   0.2223582267761230    0.0586277358233929    0.1047220379114151 F
   0.7702186703681946    0.1804447770118713    0.3794247508049011 F
   0.7701149582862855    0.9075404405593872    0.8320035338401794 F
