Rb3 Sb1 F6
1.0
   6.1664566993713379    0.0000000000000000   -1.2386730909347530
  -0.8107866443669991    5.8974229296336604   -0.6283167600631718
   0.0000000000000000    0.0000000000000000    6.2510418891906738
Rb Sb F
3 1 6
direct
   0.4734257459640503    0.9741063714027405    0.3345448076725006 Rb
   0.9739251136779785    0.9748592972755432    0.8345846533775330 Rb
   0.9729650020599365    0.4742961227893829    0.3342933952808380 Rb
   0.4735348820686340    0.4737298190593720    0.8347113728523254 Sb
   0.6297513842582703    0.2174701094627381    0.9907227158546448 F
   0.3165257871150970    0.7318145632743834    0.6787236928939819 F
   0.2449233829975128    0.2317776679992676    0.6057819724082947 F
   0.7003791928291321    0.7167988419532776    0.0619367323815823 F
   0.2525852918624878    0.4748386442661286    0.0550182685256004 F
   0.6941872239112854    0.4742142558097839    0.6135934591293335 F
