Li5 Mn1 F7
1.0
   5.1350140571594238    0.0000000000000000    0.8964810967445380
   0.9157717996018272    4.9503057878549797   -0.9011625647544855
   0.0000000000000000    0.0000000000000000    5.1989054679870605
Li Mn F
5 1 7
direct
   0.5090070962905884    0.6821047663688660    0.0088282134383917 Li
   0.2494196891784668    0.2048380225896835    0.1184243038296700 Li
   0.9164134263992310    0.8285646438598633    0.2789743542671204 Li
   0.7838480472564697    0.0904002338647842    0.8312092423439026 Li
   0.6547053456306458    0.3685263693332672    0.3957132101058960 Li
   0.1021057888865471    0.5167557001113892    0.6911090016365051 Mn
   0.7535814046859740    0.7275297045707703    0.6167985796928406 F
   0.1499439775943756    0.8765618801116942    0.9456805586814881 F
   0.3111428320407867    0.5547349452972412    0.3194351196289062 F
   0.8712217211723328    0.4488717615604401    0.0545870587229729 F
   0.5996816754341125    0.0204670187085867    0.1627552211284638 F
   0.4557400941848755    0.3306015133857726    0.7800912857055664 F
   0.9823800325393677    0.1711212545633316    0.4812760949134827 F
