Li4 Co2 Ni2 F12
1.0
   5.1751689910888672    0.0000000000000000   -0.0033902474679048
  -0.0079332853992934    5.5615826291632651    0.5987815856933594
   0.0000000000000000    0.0000000000000000    7.6189708709716797
Li Co Ni F
4 2 2 12
direct
   0.4332844913005829    0.7758221030235291    0.4558598399162293 Li
   0.9311695694923401    0.0905109941959381    0.3618623316287995 Li
   0.4308708608150482    0.5855869054794312    0.8594017624855043 Li
   0.9338206052780151    0.2777274847030640    0.9548679590225221 Li
   0.9320023059844971    0.6837696433067322    0.1578790992498398 Co
   0.4333959519863129    0.1810429394245147    0.6578554511070251 Co
   0.4317964017391205    0.1827687621116638    0.1575037539005280 Ni
   0.9321330785751343    0.6820976138114929    0.6578819155693054 Ni
   0.2432672381401062    0.8710449934005737    0.2403854429721833 F
   0.5757632255554199    0.1595414876937866    0.4065302908420563 F
   0.2630350887775421    0.5140918493270874    0.5980040431022644 F
   0.2888728976249695    0.2048540711402893    0.9086689352989198 F
   0.0988426506519318    0.3496648073196411    0.2175906151533127 F
   0.6197035312652588    0.4950981140136719    0.0745792761445045 F
   0.1210071593523026    0.9907132387161255    0.5747310519218445 F
   0.7650958895683289    0.0172932986170053    0.0976280793547630 F
   0.6008966565132141    0.8473731279373170    0.7178008556365968 F
   0.7448739409446716    0.3719963431358338    0.7413801550865174 F
   0.7889510393142700    0.7034651041030884    0.4082708954811097 F
   0.0752217471599579    0.6604922413825989    0.9072802662849427 F
