Rb2 Na1 Al1 F6                          
   1.00000000000000     
     5.2276028378980426    0.1081769321566544   -0.0160105682592273
    -1.1945538604791122    5.0921798874219313   -0.0262058169779165
    -0.0034225280165205    0.0048130946166162    5.7430872902157546
   Rb   Na   Al   F 
     2     1     1     6
Direct
  0.1587591383230454  0.8629560257707718  0.3337972410152495
  0.6467178908369416  0.3749673757526645  0.3336540261537822
  0.4029899617903401  0.6192562118356667  0.8336624579920260
  0.9028608087068892  0.1192452809779056  0.8340385221954414
  0.1042983449121144  0.3204549765797893  0.6037869124541069
  0.7009562413721797  0.9173055772912749  0.0642064571768773
  0.1248807559224552  0.8974389135143652  0.8339525055260010
  0.1054605646450007  0.3224033591832707  0.0662640623003507
  0.6802744932045791  0.3412618258064986  0.8339199016822028
  0.7003317030426688  0.9167939536134722  0.6017920110777200
 
  0.00000000E+00  0.00000000E+00  0.00000000E+00
  0.00000000E+00  0.00000000E+00  0.00000000E+00
  0.00000000E+00  0.00000000E+00  0.00000000E+00
  0.00000000E+00  0.00000000E+00  0.00000000E+00
  0.00000000E+00  0.00000000E+00  0.00000000E+00
  0.00000000E+00  0.00000000E+00  0.00000000E+00
  0.00000000E+00  0.00000000E+00  0.00000000E+00
  0.00000000E+00  0.00000000E+00  0.00000000E+00
  0.00000000E+00  0.00000000E+00  0.00000000E+00
  0.00000000E+00  0.00000000E+00  0.00000000E+00
