Mg1 Ni2 F6                              
   1.00000000000000     
     4.5771769950764902   -0.0174583878684073   -2.3915745978432947
    -2.9024783172255240    4.2714790102502809   -0.0103043008535378
     0.0085675366892772    0.0221508238854876    5.5989805656959879
   Mg   Ni   F 
     1     2     6
Direct
  0.6159012380778681  0.6277427593316667  0.0628162320216178
  0.2281938137884987  0.4341370617997551  0.4817712109666777
  0.2379403945411666  0.9387950018848409  0.9962958345588382
  0.0813688991310485  0.0361954995581728  0.2373844655829968
  0.3811117288654957  0.6830991354446860  0.2366754912591572
  0.1657435291244171  0.2118737643464586  0.7640289164838706
  0.3509863704091690  0.7794357719282677  0.7645952249307491
  0.7323094745537679  0.5940777642431866  0.7634692054310437
  0.7344840665270316  0.3375093388536171  0.2377277959418108
 
  0.00000000E+00  0.00000000E+00  0.00000000E+00
  0.00000000E+00  0.00000000E+00  0.00000000E+00
  0.00000000E+00  0.00000000E+00  0.00000000E+00
  0.00000000E+00  0.00000000E+00  0.00000000E+00
  0.00000000E+00  0.00000000E+00  0.00000000E+00
  0.00000000E+00  0.00000000E+00  0.00000000E+00
  0.00000000E+00  0.00000000E+00  0.00000000E+00
  0.00000000E+00  0.00000000E+00  0.00000000E+00
  0.00000000E+00  0.00000000E+00  0.00000000E+00
