Li1 Bi1 F4                              
   1.00000000000000     
     3.9067264597152467    0.0019871384541272    0.0083099470210071
    -0.0020132375086369    3.9112793374945656    0.0099242980866503
    -0.0044344125849245   -0.0064321746386232    5.4068638407613658
   Li   Bi   F 
     1     1     4
Direct
  0.5472148660465389  0.1542296458906184  0.1797264256194233
  0.0474300385205753  0.6546312190459276  0.6793064339725551
  0.5467659938747597  0.6551708067039922  0.9317029746145475
  0.0472045390775274  0.1546332698673396  0.9320682978214587
  0.5479728164800831  0.6548238500269319  0.4272754677184810
  0.0473784549288624  0.1554426533485368  0.4276642136490346
 
  0.00000000E+00  0.00000000E+00  0.00000000E+00
  0.00000000E+00  0.00000000E+00  0.00000000E+00
  0.00000000E+00  0.00000000E+00  0.00000000E+00
  0.00000000E+00  0.00000000E+00  0.00000000E+00
  0.00000000E+00  0.00000000E+00  0.00000000E+00
  0.00000000E+00  0.00000000E+00  0.00000000E+00
