F  H  Mn
 1.0000000000000000
     3.6934290822711202    0.0000000000000000    0.0000000000000000
     0.1299527173490245    4.2485218721812545    0.0000000000000000
     1.6014099438783640    0.2804536393219817    9.1559394088366837
 F   H   Mn 
   7   3   2
Cartesian
  2.6874023426773945  2.0793065305524774  2.6893461650350199
  2.8496689259043237  2.5002618933260834  0.3945480251313013
  0.8618812405587307  0.3100712003060148  0.5836675915113536
  4.4579112866549924  3.7593893809190946  4.6735821962935598
  1.4077505919470914  4.0838466872553951  6.9550129636475848
  3.2388736478276163  1.9094166848790139  7.4205791482791916
  2.4842103268283142  1.6025735246076518  5.2078320501524775
  4.8111247622029163  3.9108325736784564  5.9604267181903552
  2.7734212952570898  2.3493647706716518  1.5227370844469152
  2.8238847901624609  1.7467330694995589  6.4993906440749010
  4.3187500123348750  1.6523485205336266  4.0669892369989675
  4.3058085575262792  0.6517332394203553  8.8974775033629818
