Rb2 Li1 Mo1 F6                          
   1.00000000000000     
     5.3522124215169438   -0.0000029802433141    0.0033674081886660
     0.0225130301668203    5.2772156771862972   -3.0105656782725760
    -0.0040420618790786   -0.0162737661765478    6.0711043634723403
   Rb   Li   Mo   F 
     2     1     1     6
Direct
  0.1446849671502369  0.6981931221230191  0.3986905438080920
  0.5567293015422046  0.0310884000968146  0.0656946060363237
  0.3489198276405211  0.3647707362640771  0.7317133701577425
  0.8484073721248654  0.3640286368055713  0.7311115100038458
  0.5943604045293885  0.5111642586030075  0.0258552084753596
  0.5965528914875681  0.0692722192341578  0.5857001071932578
  0.1027191540894808  0.2168435027787485  0.8788461821995248
  0.5937003578833657  0.5114333654584973  0.5836547447924920
  0.1017142341493855  0.2171706668754968  0.4352633313565975
  0.0993751746651863  0.6596048759995444  0.8779062281791993
 
  0.00000000E+00  0.00000000E+00  0.00000000E+00
  0.00000000E+00  0.00000000E+00  0.00000000E+00
  0.00000000E+00  0.00000000E+00  0.00000000E+00
  0.00000000E+00  0.00000000E+00  0.00000000E+00
  0.00000000E+00  0.00000000E+00  0.00000000E+00
  0.00000000E+00  0.00000000E+00  0.00000000E+00
  0.00000000E+00  0.00000000E+00  0.00000000E+00
  0.00000000E+00  0.00000000E+00  0.00000000E+00
  0.00000000E+00  0.00000000E+00  0.00000000E+00
  0.00000000E+00  0.00000000E+00  0.00000000E+00
