Rb1 Bi1 F4                              
   1.00000000000000     
     4.4134821808587574   -0.0109843523031242    0.0952296293409213
     0.0184080180257955    3.9376430423574011   -0.0004672690489193
    -0.1321904753947281   -0.0117351274603810    6.6447671810116669
   Rb   Bi   F 
     1     1     4
Direct
  0.5522836522544442  0.8484332919887841  0.1811048777965384
  0.0666041322676147  0.3482133231301152  0.7029764156133044
  0.8394527937236763  0.3488567830348887  0.4089633690589402
  0.0436483897843670  0.8452313353956571  0.9225585853140227
  0.5759796302847240  0.3457684113899063  0.8318639575612313
  0.2475405400904970  0.8469560237332103  0.5480545725242340
 
  0.00000000E+00  0.00000000E+00  0.00000000E+00
  0.00000000E+00  0.00000000E+00  0.00000000E+00
  0.00000000E+00  0.00000000E+00  0.00000000E+00
  0.00000000E+00  0.00000000E+00  0.00000000E+00
  0.00000000E+00  0.00000000E+00  0.00000000E+00
  0.00000000E+00  0.00000000E+00  0.00000000E+00
