Na2 Tl1 In1 F6
1.0
   5.2730040550231934    0.0000000000000000    1.0725986957550051
  -1.2985370599602675    5.3583365902464752    0.9289010167121887
   0.0000000000000000    0.0000000000000000    5.5945258140563965
Na Tl In F
2 1 1 6
direct
   0.1145967394113541    0.0841942578554153    0.7904887795448303 Na
   0.1142797917127609    0.5842428803443909    0.2894900739192963 Na
   0.6151885986328125    0.0851551443338394    0.2903806567192078 Tl
   0.6146104931831360    0.5836950540542603    0.7897659540176392 In
   0.4068273901939392    0.8480070233345032    0.8786751627922058 F
   0.8209208250045776    0.6810915470123291    0.0538558773696423 F
   0.2833769321441650    0.3195027410984039    0.0556695461273193 F
   0.4077274203300476    0.4867473542690277    0.5257743597030640 F
   0.8227800726890564    0.3200987577438354    0.7008129954338074 F
   0.9461444616317748    0.8484491705894470    0.5238572359085083 F
