Li4 Fe2 F8
1.0
   5.3348331451416016    0.0000000000000000   -1.5113158226013188
  -0.3786883232517471    3.8481159963861424   -3.3547973632812496
   0.0000000000000000    0.0000000000000000    7.8539524078369141
Li Fe F
4 2 8
direct
   0.4359620213508606    0.1474063098430634    0.6155517101287842 Li
   0.9332202076911926    0.3370878398418427    0.5190110802650452 Li
   0.1505630463361740    0.0613959431648254    0.7908493876457214 Li
   0.6623689532279968    0.8572211861610413    0.8599426150321960 Li
   0.3085213899612427    0.9389374256134033    0.1217806786298752 Fe
   0.7999606132507324    0.5987687706947327    0.2171845883131027 Fe
   0.4136368036270142    0.8180497884750366    0.6349819302558899 F
   0.9063127040863037    0.6869201064109802    0.5151435136795044 F
   0.6147500276565552    0.0742816552519798    0.4054955840110779 F
   0.9831134676933289    0.1316537261009216    0.0158174205571413 F
   0.6262956261634827    0.5850538015365602    0.9389938116073608 F
   0.1342974007129669    0.4524409770965576    0.8041735291481018 F
   0.1098146811127663    0.9521527886390686    0.3171547353267670 F
   0.4850595593452454    0.2344855517148972    0.0912204384803772 F
