Rb1 H1 F2
1.0
   3.8070414066314697    0.0000000000000000    0.4161477088928228
  -0.2193663338251255    4.2132877890975813    0.6977936029434202
   0.0000000000000000    0.0000000000000000    4.6196227073669434
Rb H F
1 1 2
direct
   0.6070014834403992    0.1022937148809433    0.1245998293161392 Rb
   0.1023836955428124    0.7689588665962220    0.7642336487770081 H
   0.1648283451795578    0.6024366617202759    0.9707087874412537 F
   0.0270646456629038    0.9647023081779481    0.5907837748527527 F
