Li3 P3 O9
1.0
   4.9367647171020508    0.0000000000000000    0.4760780930519110
   0.9966077721290038    4.5537729899840489   -2.5317804813385001
   0.0000000000000000    0.0000000000000000    7.9699778556823730
Li P O
3 3 9
direct
   0.2845872342586517    0.6214191913604735    0.2004331648349762 Li
   0.2637640535831451    0.0403242148458958    0.5895097255706787 Li
   0.3093568384647369    0.9773437380790712    0.9105596542358398 Li
   0.8256969451904297    0.6350602507591248    0.5507245659828186 P
   0.8318508267402649    0.5324931740760803    0.8949943780899048 P
   0.6246830224990845    0.0967621728777885    0.2370540946722031 P
   0.8038179874420165    0.3124820888042450    0.3777561485767365 O
   0.4563693106174468    0.9774288535118104    0.3399808704853058 O
   0.9680362343788147    0.5480366945266724    0.7029716372489929 O
   0.5422085523605347    0.8285683393478392    0.6592422723770142 O
   0.0193419717252254    0.2666822373867035    0.8813853263854980 O
   0.8899664878845215    0.8275606632232666    0.0755467265844345 O
   0.0310795344412327    0.7473856806755066    0.4657679498195648 O
   0.5183215737342834    0.5683113932609558    0.9173371791839600 O
   0.4694585204124451    0.2255991101264954    0.1326080858707428 O
