Ca2 Mg2 F8                              
   1.00000000000000     
     5.3267963723494960   -0.0170995486377185   -0.7506806305423493
    -2.0540992147755825    5.4633895975214397   -1.7176250716912362
    -0.0062587435697769   -0.0128856971691227    5.6926134653959872
   Ca   Mg   F 
     2     2     8
Direct
  0.9560830485627926  0.8011869830480911  0.6012054147328512
  0.7825174320622189  0.3374063894762850  0.9059386362656151
  0.3963824958616103  0.8249563835735362  0.2256550389403925
  0.3420958825387251  0.3138350355217472  0.2818734116403814
  0.6061383141166873  0.4766401308024945  0.6115376735518976
  0.5697480736241826  0.1172142643521441  0.1378936168263461
  0.6321350401279429  0.9743255789334638  0.5740452812828580
  0.1314873089216789  0.6631101830721350  0.8967178723660331
  0.1381711957155525  0.5494864796656477  0.3270646784727688
  0.5985926626343471  0.5880504768500615  0.1795672602802499
  0.1690965368651704  0.0217977122138796  0.3696766811315905
  0.1060509550993670  0.1634634480307081  0.9331635250947236
 
  0.00000000E+00  0.00000000E+00  0.00000000E+00
  0.00000000E+00  0.00000000E+00  0.00000000E+00
  0.00000000E+00  0.00000000E+00  0.00000000E+00
  0.00000000E+00  0.00000000E+00  0.00000000E+00
  0.00000000E+00  0.00000000E+00  0.00000000E+00
  0.00000000E+00  0.00000000E+00  0.00000000E+00
  0.00000000E+00  0.00000000E+00  0.00000000E+00
  0.00000000E+00  0.00000000E+00  0.00000000E+00
  0.00000000E+00  0.00000000E+00  0.00000000E+00
  0.00000000E+00  0.00000000E+00  0.00000000E+00
  0.00000000E+00  0.00000000E+00  0.00000000E+00
  0.00000000E+00  0.00000000E+00  0.00000000E+00
