Li3 Al2 F9                              
   1.00000000000000     
     6.1409612226498309    0.0832252377814554   -0.8892807320798606
    -2.8146327069120405    4.1687171098297968    0.8008793236177887
    -0.0729430450040685    0.0941956696682446    5.9665097364420179
   Li   Al   F 
     3     2     9
Direct
  0.7668151989204247  0.5893733244806700  0.8083179901472495
  0.3845287167814989  0.0131280596157758  0.8804728631438634
  0.5761570494405845  0.3020601412055108  0.3422512513424301
  0.1651778528214409  0.4672290136680813  0.6129410726663156
  0.9830183407410817  0.1334230691103782  0.0762396082130049
  0.3917701026212427  0.8770876248310360  0.5449318429642951
  0.0750787211758702  0.2994541621279397  0.3450852201873032
  0.2602738654894556  0.1010411860377551  0.1186463479412853
  0.9478364105462342  0.0489381140834319  0.7681564425818498
  0.4217424926217799  0.3895667526927077  0.6762243051106983
  0.7264328331325183  0.2107769153559048  0.0173339996882867
  0.8873693359893101  0.4993751168767660  0.5692808083873002
  0.1977800259129883  0.5526970327249219  0.9205606723409425
  0.7560272634513191  0.7232584620676104  0.1441416328397779
 
  0.00000000E+00  0.00000000E+00  0.00000000E+00
  0.00000000E+00  0.00000000E+00  0.00000000E+00
  0.00000000E+00  0.00000000E+00  0.00000000E+00
  0.00000000E+00  0.00000000E+00  0.00000000E+00
  0.00000000E+00  0.00000000E+00  0.00000000E+00
  0.00000000E+00  0.00000000E+00  0.00000000E+00
  0.00000000E+00  0.00000000E+00  0.00000000E+00
  0.00000000E+00  0.00000000E+00  0.00000000E+00
  0.00000000E+00  0.00000000E+00  0.00000000E+00
  0.00000000E+00  0.00000000E+00  0.00000000E+00
  0.00000000E+00  0.00000000E+00  0.00000000E+00
  0.00000000E+00  0.00000000E+00  0.00000000E+00
  0.00000000E+00  0.00000000E+00  0.00000000E+00
  0.00000000E+00  0.00000000E+00  0.00000000E+00
