F  K  Se
 1.0000000000000000
     6.0264834328854571    0.0000000000000000    0.0000000000000000
    -0.0018167809092484    6.0345919876283594    0.0000000000000000
    -2.9675845985600802   -2.9787916525298495    4.3682531760387118
 F   K   Se 
   6   2   1
Cartesian
 -1.1761879309193806  4.4470504492787324  2.3170257968117496
 -2.5506205997859630 -0.1757827067489735  4.3287410030578215
  2.0647504621106116  4.4481661326676107  2.3200166460821614
  3.4407865963512081 -0.2096567902710054  0.3107344502833235
  2.0626857054665773  1.2051240657987123  2.3214296641887637
 -1.1743433281260689  1.2025355226651497  2.3179774425054345
  3.4317484560902423  2.8105284510838051  0.1366724969862632
  0.4234535641878107  5.8176794043277171  0.1356513085793092
  3.4610925221088333 -0.1954142829534626  2.3167323618741893
