Ga2 F6                                  
   1.00000000000000     
     4.4871202965366948   -0.0064574400901514    2.2396263867423047
     2.5953182323212163    4.6040594815054590    3.3784612618714029
    -0.0549068445640685    0.0249093424220395    5.0068152979542448
   Ga   F 
     2     6
Direct
  0.1407346877277695  0.5149576636430185  0.7891140086878208
  0.8301146097888821  0.0152046283986357  0.9782678608802153
  0.9860506581659878  0.2645179759506182  0.8839117139360719
  0.3751660187887450  0.2352690232278432  0.1660818127573339
  0.7320334963986657  0.7362506633784613  0.0228811365863889
  0.5963076989926633  0.2953382939701262  0.6014546240987932
  0.2378262424557196  0.7945666091099783  0.7437733592498729
  0.9854395105312224  0.7643307406276766  0.3836269408980529
 
  0.00000000E+00  0.00000000E+00  0.00000000E+00
  0.00000000E+00  0.00000000E+00  0.00000000E+00
  0.00000000E+00  0.00000000E+00  0.00000000E+00
  0.00000000E+00  0.00000000E+00  0.00000000E+00
  0.00000000E+00  0.00000000E+00  0.00000000E+00
  0.00000000E+00  0.00000000E+00  0.00000000E+00
  0.00000000E+00  0.00000000E+00  0.00000000E+00
  0.00000000E+00  0.00000000E+00  0.00000000E+00
