Be1 Sn1 H3 F7
1.0
   4.8177318572998047    0.0000000000000000    0.4593792855739599
   0.1026392545582219    4.9439148266257815   -0.1521064788103099
   0.0000000000000000    0.0000000000000000    6.3076257705688477
Be Sn H F
1 1 3 7
direct
   0.8900989294052124    0.4303125143051147    0.2539968490600586 Be
   0.4939641356468201    0.6511346101760864    0.8486967086791992 Sn
   0.3625820875167847    0.4932058453559875    0.3780731558799744 H
   0.1892903298139572    0.0390478782355785    0.1539269983768463 H
   0.9986934661865234    0.9638266563415526    0.7168374061584473 H
   0.2200304269790649    0.9690964818000793    0.7114171981811523 F
   0.4048422873020172    0.9614245295524597    0.1043370291590691 F
   0.9674327969551086    0.1210594475269317    0.2064941525459290 F
   0.8628526329994202    0.5881430506706238    0.0442292690277100 F
   0.1395944505929947    0.5457744598388672    0.3814856112003326 F
   0.7571628689765930    0.9627751708030701    0.7156502604484558 F
   0.6015343070030212    0.4614603817462921    0.4041418731212616 F
