Li3 Fe1 F5
1.0
   3.8339781761169429    0.0000000000000000   -1.6504348516464229
  -1.8327718823842076    4.7332884373514705    0.9896067380905152
   0.0000000000000000    0.0000000000000000    5.2781138420104980
Li Fe F
3 1 5
direct
   0.0795769616961478    0.9994009733200072    0.1092095971107483 Li
   0.8766090869903566    0.1877996474504471    0.5138050913810730 Li
   0.4500238299369813    0.5501866936683655    0.2971768677234650 Li
   0.2761562168598174    0.7725110650062560    0.7313255667686462 Fe
   0.7912272214889526    0.8166220784187317    0.7165759801864624 F
   0.3431168496608734    0.1553697288036346    0.4813283681869507 F
   0.5592305064201355    0.9356966018676758    0.1323406994342804 F
   0.9887757897377015    0.5716844797134399    0.3530845940113068 F
   0.1738356947898865    0.3798752725124359    0.9194872975349426 F
