Ba2 I1 F3                               
   1.00000000000000     
     4.5441622678586882   -0.0180750370788967    0.0640453488346368
     2.3023327146176116    3.9459282201132524    0.0659094088533157
    -0.1075900099727525   -0.0351601762438937    8.2663555509129267
   Ba   I    F 
     2     1     3
Direct
  0.0203652770908115  0.7203767367207767  0.0598822771218780
  0.6925735087319123  0.3839579234506665  0.6988046331556697
  0.3564461789557659  0.0522901752104433  0.3799374056492735
  0.0262352467828774  0.7177086584147883  0.7325776743586316
  0.6872183846623564  0.3857253474260285  0.0259728533369887
  0.3568738399009589  0.0509604341147543  0.8791702342796370
 
  0.00000000E+00  0.00000000E+00  0.00000000E+00
  0.00000000E+00  0.00000000E+00  0.00000000E+00
  0.00000000E+00  0.00000000E+00  0.00000000E+00
  0.00000000E+00  0.00000000E+00  0.00000000E+00
  0.00000000E+00  0.00000000E+00  0.00000000E+00
  0.00000000E+00  0.00000000E+00  0.00000000E+00
