Li1 Al1 H5 Pb2 O2 F9                    
   1.00000000000000     
     5.3898684636434862   -0.0528621088428051    2.6735807890898662
     2.5094985136675683    5.4356715718211817    0.3704693755153086
     0.0566959303624794   -0.0241265155421469    7.9915404269887915
   Li   Al   H    Pb   O    F 
     1     1     5     2     2     9
Direct
  0.9353069170725063  0.4661193734654307  0.3034602174940361
  0.5206208576001776  0.1551171691022805  0.5367894340957979
  0.6619561765754706  0.6821959537279918  0.7132919976758212
  0.3207746588395834  0.1313116239097567  0.9387987290991860
  0.9343758518757839  0.6877293560332790  0.0053866918066961
  0.3842405586675115  0.6842527182212134  0.8756499429623111
  0.1173593802959289  0.6584498527870934  0.7834567791944559
  0.2466489777739747  0.8264454217480920  0.3661725200998997
  0.7372019836988053  0.2541698107178806  0.9799479287918555
  0.0454172040829076  0.7595981116896547  0.9045680544802158
  0.5795494964668180  0.6372009134359925  0.8407338947194307
  0.4902244469626552  0.1825128037845745  0.7804639219727785
  0.1841484028455063  0.1138742177744489  0.0696900570859755
  0.2994037458626360  0.4860367124232370  0.5675152626739057
  0.5601489399542716  0.0989406639350443  0.3016341196134126
  0.8134134967064952  0.2346056375224825  0.4490744021416995
  0.7314135495041962  0.5666499158821604  0.1699397614246752
  0.2230798123925554  0.0848149562761446  0.6412814946929255
  0.7574158436784602  0.8228536536874790  0.5039186159074347
  0.2564885440033555  0.5139168820499533  0.1897521292676818
 
  0.00000000E+00  0.00000000E+00  0.00000000E+00
  0.00000000E+00  0.00000000E+00  0.00000000E+00
  0.00000000E+00  0.00000000E+00  0.00000000E+00
  0.00000000E+00  0.00000000E+00  0.00000000E+00
  0.00000000E+00  0.00000000E+00  0.00000000E+00
  0.00000000E+00  0.00000000E+00  0.00000000E+00
  0.00000000E+00  0.00000000E+00  0.00000000E+00
  0.00000000E+00  0.00000000E+00  0.00000000E+00
  0.00000000E+00  0.00000000E+00  0.00000000E+00
  0.00000000E+00  0.00000000E+00  0.00000000E+00
  0.00000000E+00  0.00000000E+00  0.00000000E+00
  0.00000000E+00  0.00000000E+00  0.00000000E+00
  0.00000000E+00  0.00000000E+00  0.00000000E+00
  0.00000000E+00  0.00000000E+00  0.00000000E+00
  0.00000000E+00  0.00000000E+00  0.00000000E+00
  0.00000000E+00  0.00000000E+00  0.00000000E+00
  0.00000000E+00  0.00000000E+00  0.00000000E+00
  0.00000000E+00  0.00000000E+00  0.00000000E+00
  0.00000000E+00  0.00000000E+00  0.00000000E+00
  0.00000000E+00  0.00000000E+00  0.00000000E+00
