K3 H3 F6
1.0
   6.2184848785400400    0.0000000000000000   -0.5687971115112302
  -0.4868809340509556    5.4571658806629717    1.8498489856719982
   0.0000000000000000    0.0000000000000000    5.5737776756286621
K H F
3 3 6
direct
   0.8133550286293030    0.1175015568733215    0.6245971322059631 K
   0.4827956557273864    0.7831290364265441    0.2936730980873108 K
   0.1474418789148331    0.4512480795383453    0.9586228728294373 K
   0.9856643676757812    0.9423326253890991    0.1278994977474213 H
   0.6533538699150085    0.6052403450012207    0.7973292469978333 H
   0.3178437948226929    0.2719871401786804    0.4635687172412872 H
   0.4288278520107269    0.2014339566230774    0.3630533218383789 F
   0.5340486764907837    0.7125538587570190    0.8563739061355591 F
   0.1986402869224548    0.3788494765758514    0.5252110958099365 F
   0.0994051396846771    0.8705199956893921    0.0298498123884201 F
   0.8660386800765991    0.0494378022849560    0.1881704181432724 F
   0.7650276422500610    0.5365779399871826    0.6936556100845337 F
