K1 H1 F2                                
   1.00000000000000     
     3.4642097507621115   -0.0020611201020101    0.0071117092165123
     0.0087163512786968    3.4593906603095821    0.0200674455501180
    -0.0017950559930839   -0.0051849295959747    5.0504518289786278
   K    H    F 
     1     1     2
Direct
  0.0010524500529507  0.2931301414725152  0.5547608959804367
  0.5015593745879092  0.7940539918543037  0.0541724431013569
  0.5009909062268653  0.7952311057760010  0.8267069211509320
  0.5012244297533367  0.7941868860650269  0.2821720096933457
 
  0.00000000E+00  0.00000000E+00  0.00000000E+00
  0.00000000E+00  0.00000000E+00  0.00000000E+00
  0.00000000E+00  0.00000000E+00  0.00000000E+00
  0.00000000E+00  0.00000000E+00  0.00000000E+00
