Rb2 Na1 Li1 B1 I1 Br2 F4
1.0
   6.2063093185424805    0.0000000000000000   -0.0341328419744969
  -0.0512215401074499    6.8453183706386733   -0.1542228013277067
   0.0000000000000000    0.0000000000000000    6.8165946006774902
Rb Na Li B I Br F
2 1 1 1 1 2 4
direct
   0.8164603114128113    0.3740705847740173    0.8686922192573547 Rb
   0.3153429329395294    0.3447827994823455    0.3624387383460999 Rb
   0.3167138993740082    0.8802185654640198    0.8568108677864075 Na
   0.8148153424263000    0.8659214973449707    0.4459273517131805 Li
   0.3156604468822479    0.8396563529968262    0.3540401458740234 B
   0.3154432773590088    0.4153664708137512    0.8624708056449890 I
   0.8144927620887756    0.2262615561485291    0.3636190593242645 Br
   0.8147310614585876    0.8710737228393555    0.8323470354080200 Br
   0.3125386536121368    0.9599500298500061    0.5283286571502686 F
   0.3135828673839569    0.9531226158142090    0.1830970495939255 F
   0.5092942118644714    0.7223303914070129    0.3564532697200775 F
   0.1172786504030228    0.7208954095840453    0.3529487550258636 F
