Na1 Y2 F7
1.0
   3.8164620399475098    0.0000000000000000   -0.0061002448201173
  -1.8781313627285392    5.7200900104008552   -2.8368954658508305
   0.0000000000000000    0.0000000000000000    5.6773247718811035
Na Y F
1 2 7
direct
   0.2204836755990982    0.2605927884578705    0.0066213281825185 Na
   0.5722576379776001    0.9659331440925597    0.3608518540859222 Y
   0.8694387078285215    0.5537138581275939    0.6525802612304688 Y
   0.7198012471199033    0.2588343918323516    0.2319968193769455 F
   0.0362255573272705    0.8925701379776001    0.0754682123661041 F
   0.0384814776480198    0.8946660161018372    0.5770549178123473 F
   0.7213303446769713    0.2598713040351867    0.7806041240692139 F
   0.2195962220430374    0.2597005665302277    0.5070490241050720 F
   0.4050903916358947    0.6289068460464478    0.9350739121437073 F
   0.4040093421936035    0.6261492371559143    0.4370735585689545 F
