Al2 F6
1.0
   4.2994456291198730    0.0000000000000000   -0.0061808377504350
  -0.0215522799611508    4.0045153484771738   -2.3402345180511466
   0.0000000000000000    0.0000000000000000    4.6241884231567383
Al F
2 6
direct
   0.3774341642856598    0.8598154783248901    0.3144422173500061 Al
   0.8769336938858032    0.1950836330652237    0.9803057909011841 Al
   0.1280870288610458    0.5276062488555908    0.0075658606365323 F
   0.6276864409446716    0.5277843475341797    0.2873545587062836 F
   0.1270434260368347    0.1647036373615265    0.2854209542274475 F
   0.6257641315460205    0.8885110020637512    0.0089194560423493 F
   0.6262601613998413    0.1668753474950790    0.6462410092353821 F
   0.1264954805374146    0.8881817460060120    0.6469698548316956 F
