Li4 Mn2 F8
1.0
   5.7794332504272461    0.0000000000000000   -1.5647867918014544
  -3.2806840804655342    4.7718415918085872   -1.5745338201522820
   0.0000000000000000    0.0000000000000000    6.1069607734680176
Li Mn F
4 2 8
direct
   0.3849308490753174    0.3082617521286011    0.6445358991622925 Li
   0.0414756312966346    0.4615034162998199    0.9553341269493102 Li
   0.8175117969512939    0.8767554759979248    0.1436461210250854 Li
   0.9726038575172425    0.5334001183509827    0.4563246965408325 Li
   0.3908447325229645    0.1322634071111679    0.0500212348997593 Mn
   0.6392880678176880    0.8814366459846497    0.5489541888237000 Mn
   0.6239875555038452    0.6940432190895081    0.7915817499160765 F
   0.6236940026283264    0.2018586546182632    0.8137660026550292 F
   0.2036353349685669    0.1162642389535904    0.2913796305656433 F
   0.1317256540060043    0.7014064192771912    0.8084850311279296 F
   0.7123305797576904    0.1170866638422012    0.3140475153923035 F
   0.1106343045830727    0.1874249428510666    0.7861710786819457 F
   0.2100897729396820    0.6228900551795959    0.3069281876087188 F
   0.6981498599052429    0.6040093898773193    0.2864192426204681 F
