Rb1 H1 F2                               
   1.00000000000000     
     3.6765963482342858   -0.0101734568374183   -0.0920315451992643
     0.0067700842962812    3.6773666212819562   -0.0279536842551139
    -0.0067080974109374    0.0648986286185913    5.1544039319449801
   Rb   H    F 
     1     1     2
Direct
  0.1096975529092351  0.6801627276842761  0.9243011223670546
  0.6095836815745321  0.1802768869382417  0.4244706556279711
  0.6244857411135655  0.1796414024893218  0.2017516645542105
  0.5947499392471801  0.1815133612403257  0.6470557922892497
 
  0.00000000E+00  0.00000000E+00  0.00000000E+00
  0.00000000E+00  0.00000000E+00  0.00000000E+00
  0.00000000E+00  0.00000000E+00  0.00000000E+00
  0.00000000E+00  0.00000000E+00  0.00000000E+00
