Li3 Ni2 F7
1.0
   4.9072017669677734    0.0000000000000000    1.0340445041656496
   1.3598196123630257    5.1954776177381401   -0.0728627070784564
   0.0000000000000000    0.0000000000000000    5.2667737007141113
Li Ni F
3 2 7
direct
   0.4299644231796265    0.7603980302810669    0.1868807673454285 Li
   0.2422266006469727    0.1528274714946747    0.8595501780509949 Li
   0.1461159139871597    0.3773781657218933    0.3514224588871002 Li
   0.8485011458396912    0.9544518589973450    0.5135413408279419 Ni
   0.5504094362258911    0.5234471559524536    0.6715802550315857 Ni
   0.7615040540695190    0.6466203331947327    0.3453883230686188 F
   0.0980517640709877    0.0532762445509434    0.2000918686389923 F
   0.2071540206670761    0.7032937407493591    0.5424427986145020 F
   0.4843461811542511    0.2075790017843246    0.4997771084308624 F
   0.5959153771400452    0.8497086167335511    0.8378086090087891 F
   0.3446934819221496    0.4542082548141479    0.0163171868771315 F
   0.9192740917205811    0.2673585414886475    0.6973217725753784 F
