Rb2 Y1 Be2 F9                           
   1.00000000000000     
     7.0394234990133384    0.1141054932965767    0.1885341846814399
    -1.9828495752217610    4.6140870274748602    1.7556570264927904
    -0.0455116782837888    0.0067027086123190    6.6897940773130964
   Rb   Y    Be   F 
     2     1     2     9
Direct
  0.7755278784034394  0.6294486693997264  0.5154433635504923
  0.8810048890885424  0.9843700215006480  0.9114147179986637
  0.2475381809429020  0.4294092323157813  0.3120583055288265
  0.2975818010286501  0.7760098613080676  0.7216064549738600
  0.4940626264557927  0.1709480662835169  0.1296338144974248
  0.1861175186602827  0.5533236135206755  0.6037893710631602
  0.9284127887063014  0.2362508409710886  0.3767908273022129
  0.5527779017127665  0.3866708493850446  0.2562570127506281
  0.6392456553028338  0.3122000559327192  0.9206957137742439
  0.5249941289595302  0.8481210505235761  0.7075172500678990
  0.4964579808967057  0.8619002753059201  0.2481388023777730
  0.1919610263612452  0.6394115208199908  0.9700851169212622
  0.2520068077040270  0.1182649588644995  0.1402773166463096
  0.2297329625741618  0.0435392485140841  0.6070835436226454
 
  0.00000000E+00  0.00000000E+00  0.00000000E+00
  0.00000000E+00  0.00000000E+00  0.00000000E+00
  0.00000000E+00  0.00000000E+00  0.00000000E+00
  0.00000000E+00  0.00000000E+00  0.00000000E+00
  0.00000000E+00  0.00000000E+00  0.00000000E+00
  0.00000000E+00  0.00000000E+00  0.00000000E+00
  0.00000000E+00  0.00000000E+00  0.00000000E+00
  0.00000000E+00  0.00000000E+00  0.00000000E+00
  0.00000000E+00  0.00000000E+00  0.00000000E+00
  0.00000000E+00  0.00000000E+00  0.00000000E+00
  0.00000000E+00  0.00000000E+00  0.00000000E+00
  0.00000000E+00  0.00000000E+00  0.00000000E+00
  0.00000000E+00  0.00000000E+00  0.00000000E+00
  0.00000000E+00  0.00000000E+00  0.00000000E+00
