Ba2 Bi1 F9
1.0
   6.3053941726684570    0.0000000000000000   -0.0415624976158132
   3.1185968304399161    5.8148620976530383   -3.1840872764587393
   0.0000000000000000    0.0000000000000000    6.3337779045104980
Ba Bi F
2 1 9
direct
   0.5155119299888611    0.0997797623276711    0.2365041077136993 Ba
   0.0142733529210091    0.1006996557116508    0.7383037805557250 Ba
   0.7654042840003967    0.5996153354644775    0.4872013330459595 Bi
   0.4319556951522826    0.8409837484359741    0.8193801641464233 F
   0.6728841066360474    0.3584014773368835    0.1531923413276672 F
   0.8555948734283448    0.8430516719818115    0.8209390044212341 F
   0.2651951014995575    0.5990691781044006    0.9857832193374634 F
   0.8566577434539795    0.8407428264617920    0.3949535489082335 F
   0.0989020839333534    0.3568870127201080    0.1528335064649582 F
   0.6748328804969788    0.3567377328872681    0.5763368010520935 F
   0.4304090738296509    0.8434951901435852    0.3965567946434020 F
   0.0995306372642517    0.3562784790992737    0.5769589543342590 F
