K1 Sb1 Te1 O1 F6
1.0
   5.2671632766723633    0.0000000000000000    0.1694346666336061
  -2.8711428315442205    6.4716428580335723   -2.7833812236785898
   0.0000000000000000    0.0000000000000000    5.0804557800292969
K Sb Te O F
1 1 1 1 6
direct
   0.5252146124839783    0.4557681083679199    0.4746531248092651 K
   0.7748518586158752    0.1192210689187050    0.8065839409828186 Sb
   0.1966692209243774    0.7822069525718689    0.1965295821428300 Te
   0.4614586234092712    0.9140475988388062    0.5324928760528564 O
   0.3416869044303894    0.0581420175731182    0.1640522480010986 F
   0.5019767880439758    0.7281717658042908    0.9833323359489441 F
   0.1195031479001045    0.5239211320877075    0.2685911655426026 F
   0.6164162755012512    0.3240096569061279    0.8886350989341736 F
   0.9905757308006287    0.2503699660301208    0.5706993341445923 F
   0.9358101487159729    0.8487393260002136    0.5037712454795837 F
