V2 F8
1.0
   5.0586595535278320    0.0000000000000000   -0.0340193808078768
  -0.0447960156111653    4.7745706121261620   -0.0135335018858310
   0.0000000000000000    0.0000000000000000    6.0731859207153320
V F
2 8
direct
   0.3876762688159943    0.3526234030723572    0.0806376785039902 V
   0.7555088400840759    0.8530667424201965    0.5818740129470825 V
   0.4359702467918396    0.9626451134681701    0.5809357166290283 F
   0.9020577073097229    0.9687341451644897    0.3467750251293182 F
   0.2421654462814331    0.4707842171192169    0.8484229445457458 F
   0.3911732435226440    0.9941015243530273    0.0804775059223175 F
   0.9012601375579834    0.9693353176116942    0.8124643564224243 F
   0.7533667087554932    0.4928279221057892    0.5827484130859375 F
   0.7080758213996887    0.4624536335468292    0.0793925821781158 F
   0.2414259165525436    0.4701690971851349    0.3136380314826965 F
