Na3 Sc1 F6                              
   1.00000000000000     
     5.1845920276858601    0.0197560561922722   -2.0811290107627944
    -2.0975911368058080    5.2352775094656367   -1.3733770191735022
     0.1156122369877847    0.0034945494844622    5.5878780364780907
   Na   Sc   F 
     3     1     6
Direct
  0.2563470748009870  0.4703079528506682  0.2613421769270365
  0.0743456457512048  0.9701121569968999  0.4438664997416601
  0.6452190065253994  0.4704456925646699  0.8726772637629844
  0.4439748346421040  0.9703128768937456  0.0746956668653550
  0.8221986763223647  0.2016109058412595  0.1575585334978873
  0.6267941031358315  0.7479798455784802  0.2441335849150340
  0.3607053815778997  0.7370404690252851  0.6976986002068567
  0.0899408679455372  0.7338635600028561  0.0587275175362153
  0.2758125321705821  0.1924522622027477  0.8904649333683120
  0.4603092428769714  0.2078056205259542  0.4277024544880728
 
  0.00000000E+00  0.00000000E+00  0.00000000E+00
  0.00000000E+00  0.00000000E+00  0.00000000E+00
  0.00000000E+00  0.00000000E+00  0.00000000E+00
  0.00000000E+00  0.00000000E+00  0.00000000E+00
  0.00000000E+00  0.00000000E+00  0.00000000E+00
  0.00000000E+00  0.00000000E+00  0.00000000E+00
  0.00000000E+00  0.00000000E+00  0.00000000E+00
  0.00000000E+00  0.00000000E+00  0.00000000E+00
  0.00000000E+00  0.00000000E+00  0.00000000E+00
  0.00000000E+00  0.00000000E+00  0.00000000E+00
