Rb1 H1 F2
1.0
   4.0130066871643066    0.0000000000000000    0.0159718375653034
   0.0130076636288935    4.0226635434259013    0.0222905743867159
   0.0000000000000000    0.0000000000000000    5.6870036125183105
Rb H F
1 1 2
direct
   0.9846101403236389    0.5558043718338013    0.7991731166839600 Rb
   0.4856111407279968    0.0556922219693661    0.2995180487632751 H
   0.9842994213104248    0.5553768873214721    0.3001148998737335 F
   0.4839962124824524    0.0547208972275257    0.7987731695175171 F
