Na1 Lu1 F4                              
   1.00000000000000     
     3.4591783238149221    0.0000324478874226   -0.0007714869454851
    -0.0043132116024515    5.1600692830517865    0.1046473992370556
     0.0043668454027335   -0.0019535945202034    5.1478503918260969
   Na   Lu   F 
     1     1     4
Direct
  0.5367326074897508  0.6601205503181881  0.0663847895951265
  0.0369938837696299  0.1600838994653643  0.5662182980099524
  0.5369193255262833  0.9819258750826608  0.3869578694086411
  0.5374987034636649  0.3378199899954005  0.7454338476075827
  0.0362638762929907  0.4487649192326950  0.2788581856066866
  0.0370343252417952  0.8714724543755782  0.8537811136662445
 
  0.00000000E+00  0.00000000E+00  0.00000000E+00
  0.00000000E+00  0.00000000E+00  0.00000000E+00
  0.00000000E+00  0.00000000E+00  0.00000000E+00
  0.00000000E+00  0.00000000E+00  0.00000000E+00
  0.00000000E+00  0.00000000E+00  0.00000000E+00
  0.00000000E+00  0.00000000E+00  0.00000000E+00
