Rb2 S2 O4 F2                            
   1.00000000000000     
     4.8963350904703198   -0.0144238027990217    0.0028969922724056
    -2.3679621007024423    7.0846544504699107    0.0180722087547018
    -0.0108736817290751   -0.0174998164727581    6.0239443980423495
   Rb   S    O    F 
     2     2     4     2
Direct
  0.7593446897179730  0.1308350108628578  0.8496186837972072
  0.4669789750709303  0.5588963842539272  0.3492633462173269
 -0.0000267155448871  0.6577766173641583  0.8496544528295786
  0.1987561490279009  0.0306941556014598  0.3489031707366217
  0.2681793495868839  0.1476105456766475  0.5523633926459152
  0.2694084306785410  0.1478700302320319  0.1458062126537301
  0.9576540068068201  0.5405580799403752  0.0526683931372458
  0.9573052840455482  0.5412266357843201  0.6460632838128877
  0.8049860036740897  0.9750756694321597  0.3481210062581258
  0.6580726257500200  0.7102989405375217  0.8493530251562242
 
  0.00000000E+00  0.00000000E+00  0.00000000E+00
  0.00000000E+00  0.00000000E+00  0.00000000E+00
  0.00000000E+00  0.00000000E+00  0.00000000E+00
  0.00000000E+00  0.00000000E+00  0.00000000E+00
  0.00000000E+00  0.00000000E+00  0.00000000E+00
  0.00000000E+00  0.00000000E+00  0.00000000E+00
  0.00000000E+00  0.00000000E+00  0.00000000E+00
  0.00000000E+00  0.00000000E+00  0.00000000E+00
  0.00000000E+00  0.00000000E+00  0.00000000E+00
  0.00000000E+00  0.00000000E+00  0.00000000E+00
