Li3 Mn2 F7                              
   1.00000000000000     
     4.9256241285684066   -0.0713525618015756   -0.1081082525540077
    -1.3997430116035976    4.8845329902422776   -1.0210012431849711
     0.3119267767372214    0.0428884832748644    5.4207596697557214
   Li   Mn   F 
     3     2     7
Direct
  0.3113628780966395  0.3352556178089217  0.8818957022895404
  0.7161752630873904  0.8146047498238493  0.7940215302368886
  0.6712131471820386  0.6431324335819872  0.2137633170349092
  0.2515969265124574  0.9365302646170667  0.3102463368117492
  0.7758360345674786  0.2184709978652238  0.4233403227357231
  0.5493871294931795  0.8612929624553423  0.5051496107745073
  0.4778369580076051  0.2776472628887834  0.1996508229085572
  0.3883492327530876  0.7183747826084860  0.0122808221589183
  0.0747910937938593  0.1358909383023276  0.6103321757135576
  0.9920556254676429  0.5836314986382991  0.3581925573646284
  0.9317653646300821 -0.0113422763184185  0.1177828150932838
  0.6741453509639214  0.4301674255505619  0.7407674847632025
 
  0.00000000E+00  0.00000000E+00  0.00000000E+00
  0.00000000E+00  0.00000000E+00  0.00000000E+00
  0.00000000E+00  0.00000000E+00  0.00000000E+00
  0.00000000E+00  0.00000000E+00  0.00000000E+00
  0.00000000E+00  0.00000000E+00  0.00000000E+00
  0.00000000E+00  0.00000000E+00  0.00000000E+00
  0.00000000E+00  0.00000000E+00  0.00000000E+00
  0.00000000E+00  0.00000000E+00  0.00000000E+00
  0.00000000E+00  0.00000000E+00  0.00000000E+00
  0.00000000E+00  0.00000000E+00  0.00000000E+00
  0.00000000E+00  0.00000000E+00  0.00000000E+00
  0.00000000E+00  0.00000000E+00  0.00000000E+00
