Li3 Ni3 F9
1.0
   4.9570550918579093    0.0000000000000000    1.3589253425598151
  -0.6278902017210406    5.0156824676267879   -0.5829606056213376
   0.0000000000000000    0.0000000000000000    6.6449084281921387
Li Ni F
3 3 9
direct
   0.9346847534179688    0.9118430614471436    0.8427805900573730 Li
   0.7459338307380676    0.8317219018936156    0.3707864880561829 Li
   0.5648859143257141    0.2708053588867188    0.2165073156356812 Li
   0.4205023050308228    0.4623849093914032    0.7131563425064087 Ni
   0.3006812930107117    0.7216390967369080    0.1397312581539154 Ni
   0.9831252098083496    0.3586389422416687    0.4755018651485443 Ni
   0.9255840182304382    0.5086553692817688    0.2262050956487656 F
   0.2475585937500000    0.7795148491859436    0.8676096796989441 F
   0.3677518367767334    0.5736727714538574    0.4162871837615967 F
   0.4705371856689453    0.4068377017974854    0.9888565540313721 F
   0.6696656942367554    0.9319136738777160    0.1100783273577690 F
   0.6120375990867615    0.1693912446498871    0.5198797583580017 F
   0.0588699653744698    0.2513703405857086    0.7309718728065491 F
   0.7917829751968384    0.6779287457466125    0.6325088739395142 F
   0.1373811662197113    0.0379740968346596    0.3060747385025024 F
