K1 Sn1 F5                               
   1.00000000000000     
     3.9872511053088284    0.0137290017747256    1.3312956583714126
     1.4814079205342805    4.4179930259814988    2.1276500736708956
     0.0238231673341261   -0.1180877019196503    6.5215532361129149
   K    Sn   F 
     1     1     5
Direct
  0.6443054632952424  0.7604549526582509  0.0851586148452115
  0.1467365377669867  0.2615427852208745  0.5843345544150059
  0.0132551157334421  0.6943527109370906  0.4129407342657387
  0.6479324787073127  0.2593979639362665  0.5840812870810215
  0.3266216989167102  0.2053538351021741  0.2819223337610537
  0.9700431414899247  0.3187821768625928  0.8865281272323281
  0.2777241341797220  0.8287990111996518  0.7556824928832064
 
  0.00000000E+00  0.00000000E+00  0.00000000E+00
  0.00000000E+00  0.00000000E+00  0.00000000E+00
  0.00000000E+00  0.00000000E+00  0.00000000E+00
  0.00000000E+00  0.00000000E+00  0.00000000E+00
  0.00000000E+00  0.00000000E+00  0.00000000E+00
  0.00000000E+00  0.00000000E+00  0.00000000E+00
  0.00000000E+00  0.00000000E+00  0.00000000E+00
