K1 Pr2 F7
1.0
   3.8732688426971436    0.0000000000000000   -1.1272507905960083
  -0.7031482390362304    5.4147589713629314   -2.5760123729705806
   0.0000000000000000    0.0000000000000000    7.0447821617126465
K Pr F
1 2 7
direct
   0.7770346403121948    0.9803966879844666    0.6001972556114197 K
   0.1251996159553528    0.3275368213653564    0.2948406040668488 Pr
   0.4306456148624420    0.6326867341995239    0.9054265022277832 Pr
   0.2760165631771088    0.2161793261766433    0.5992568135261536 F
   0.2776542901992798    0.7437841296195984    0.6005419492721558 F
   0.7766920328140259    0.4808288514614105    0.5998715162277222 F
   0.9641703367233276    0.9085057973861694    0.9725646972656250 F
   0.5919365882873535    0.5371946096420288    0.2285967022180557 F
   0.5916021466255188    0.0529383905231953    0.2261962592601776 F
   0.9639764428138733    0.4238242208957672    0.9721150398254395 F
