K1 Na2 Li2 F5                           
   1.00000000000000     
     3.3209538535667966   -0.0023119532226842    0.0015588919079009
    -1.6579207282859678    4.6456147045836049   -2.9827559265650039
     0.0058395328798626    0.2312499700190763    8.2128789080344031
   K    Na   Li   F 
     1     2     2     5
Direct
  0.0824793803512372  0.6453203994924837  0.3991227643984349
  0.7420670731622255  0.9689597400342929  0.8755581297772281
  0.9173061910205744  0.3165156528516121  0.6429270955037567
  0.2665751248915689  0.0126321299699815  0.2130977149712279
  0.4954075880603386  0.4763706081086661 -0.0109408929890244
  0.7498917781085432  0.9798358171262604  0.3171589628744922
  0.3249766819590099  0.1332101407015832  0.7469027535415791
  0.0824787547497010  0.6484637309258303  0.9840085312287464
  0.3931430119573685  0.2647263205924247  0.1197357870752898
  0.5371271707734028  0.5548004542149431  0.6033625256985955
 
  0.00000000E+00  0.00000000E+00  0.00000000E+00
  0.00000000E+00  0.00000000E+00  0.00000000E+00
  0.00000000E+00  0.00000000E+00  0.00000000E+00
  0.00000000E+00  0.00000000E+00  0.00000000E+00
  0.00000000E+00  0.00000000E+00  0.00000000E+00
  0.00000000E+00  0.00000000E+00  0.00000000E+00
  0.00000000E+00  0.00000000E+00  0.00000000E+00
  0.00000000E+00  0.00000000E+00  0.00000000E+00
  0.00000000E+00  0.00000000E+00  0.00000000E+00
  0.00000000E+00  0.00000000E+00  0.00000000E+00
