Li4 Fe1 F7                              
   1.00000000000000     
     4.9216134529704005   -0.0895923551003885   -0.9594052086800631
    -1.1069243355832810    5.0196905104969334   -0.4884229482589318
     0.0520956472359290    0.1025533660765434    5.0932103312887786
   Li   Fe   F 
     4     1     7
Direct
  0.0689436792888758  0.1214052787645706  0.5793218209592121
  0.7787237842812433  0.9772119874563883 -0.0044540188205138
  0.4801912696968476  0.8253787838971905  0.4147466475631626
  0.6980423900277595  0.4714077018888149  0.7422120378112491
  0.3620799394270047  0.2933533470544961  0.1420850122326673
  0.3020131774589597  0.4646584082721000  0.4564972168282299
  0.0294372511065768  0.3288817831451025  0.9219587900482830
  0.1561335020181930  0.9755984915091844  0.2393465534280848
  0.4449933369084764  0.1261898020936488  0.8291192421072590
  0.8098022506875678  0.8201206506630042  0.6603630842220879
  0.6773807069849526  0.1990242368075786  0.3396476918853483
  0.5660314487523280  0.6218452650898048  0.0730369968191387
 
  0.00000000E+00  0.00000000E+00  0.00000000E+00
  0.00000000E+00  0.00000000E+00  0.00000000E+00
  0.00000000E+00  0.00000000E+00  0.00000000E+00
  0.00000000E+00  0.00000000E+00  0.00000000E+00
  0.00000000E+00  0.00000000E+00  0.00000000E+00
  0.00000000E+00  0.00000000E+00  0.00000000E+00
  0.00000000E+00  0.00000000E+00  0.00000000E+00
  0.00000000E+00  0.00000000E+00  0.00000000E+00
  0.00000000E+00  0.00000000E+00  0.00000000E+00
  0.00000000E+00  0.00000000E+00  0.00000000E+00
  0.00000000E+00  0.00000000E+00  0.00000000E+00
  0.00000000E+00  0.00000000E+00  0.00000000E+00
