Cs2 Ta1 F6
1.0
   5.9760689735412598    0.0000000000000000    0.9316523075103769
   4.9007971020363348    6.4811243367743581    1.5233038663864149
   0.0000000000000000    0.0000000000000000    6.7394232749938965
Cs Ta F
2 1 6
direct
   0.8327042460441589    0.0375253669917583    0.4169526994228362 Cs
   0.3312142491340637    0.5385279655456543    0.9168573021888732 Cs
   0.3331441879272461    0.0378448553383350    0.9170383214950560 Ta
   0.3512209653854370    0.8291996121406555    0.1255159080028534 F
   0.7220640778541564    0.8250569105148315    0.8114514946937560 F
   0.1822314560413362    0.9689064025878905    0.7327656745910643 F
   0.9411703944206238    0.2502986490726471    0.0226804483681917 F
   0.4812832176685333    0.1067022234201431    0.1016579344868660 F
   0.3148606419563293    0.2458083480596542    0.7082869410514830 F
