Cs1 K1 Rb1 Sc1 F6                       
   1.00000000000000     
     6.9269373855478777    0.0044369108880315    0.1994934228483262
     0.0003317499131596    4.3404645062746221    0.0042047992415500
     0.2031257010829437    0.0113058074348688    6.7427933190819607
   Cs   K    Rb   Sc   F 
     1     1     1     1     6
Direct
  0.2090442203198240  0.7092555784768837  0.1318629733629303
  0.2609750957152920  0.2052009333952177  0.6347164022172230
  0.7711230575653111  0.7052746011394943  0.6011676653069428
  0.7176029493749202  0.2090975387050938  0.1004966320795208
  0.9425747826001707  0.2127474223347041  0.8972790377306489
  0.4946331913104480  0.2091217710655639  0.3041995550142700
  0.8996951767671261  0.2046835402149057  0.3185128696188725
  0.5333650543400663  0.2092906640560871  0.8784541066673339
  0.1478924543994239  0.7050842689135828  0.5426780055201953
  0.7177092475716758  0.7091474759871026  0.0986914867202107
 
  0.00000000E+00  0.00000000E+00  0.00000000E+00
  0.00000000E+00  0.00000000E+00  0.00000000E+00
  0.00000000E+00  0.00000000E+00  0.00000000E+00
  0.00000000E+00  0.00000000E+00  0.00000000E+00
  0.00000000E+00  0.00000000E+00  0.00000000E+00
  0.00000000E+00  0.00000000E+00  0.00000000E+00
  0.00000000E+00  0.00000000E+00  0.00000000E+00
  0.00000000E+00  0.00000000E+00  0.00000000E+00
  0.00000000E+00  0.00000000E+00  0.00000000E+00
  0.00000000E+00  0.00000000E+00  0.00000000E+00
