Li5 Mn2 F9
1.0
   5.3695278167724609    0.0000000000000000    0.6226614117622380
  -0.3488458417306069    5.1326586241674930   -1.5801169872283931
   0.0000000000000000    0.0000000000000000    6.7102546691894531
Li Mn F
5 2 9
direct
   0.3016127943992615    0.5464468598365784    0.9849982857704164 Li
   0.6638486385345459    0.7384880185127259    0.2341195791959763 Li
   0.8786363601684570    0.6298480629920959    0.8484141826629639 Li
   0.0511908605694771    0.2367093265056610    0.1342522650957108 Li
   0.4713802337646484    0.9350545406341554    0.7784814238548279 Li
   0.9954458475112914    0.0444703362882137    0.5944860577583313 Mn
   0.5261844396591187    0.3231604993343353    0.4655893146991730 Mn
   0.7358090877532959    0.6965491771697999    0.5557664632797242 F
   0.8500728607177734    0.1052955538034439    0.3299625217914581 F
   0.1995481550693512    0.4387673437595367    0.6858134269714355 F
   0.1147114261984825    0.9814384579658508    0.8688429594039919 F
   0.3995253145694733    0.3946484327316284    0.2020446658134460 F
   0.9635523557662963    0.5524682402610779    0.0936492979526520 F
   0.5732949376106262    0.7843757867813110    0.9757848381996156 F
   0.3488057255744934    0.9414359331130981    0.4404038190841675 F
   0.6693749427795410    0.2495309710502625    0.7399007678031921 F
