Rb2 Na1 Sb1 F6                          
   1.00000000000000     
     4.7982701458530572   -0.1509408059754478   -0.0972782919438801
    -0.2003594986517559    6.3057542156504542   -0.0295300342728959
    -0.1212728712299873   -0.0498524661016862    6.2559634738332823
   Rb   Na   Sb   F 
     2     1     1     6
Direct
  0.9381368918625047  0.5090633633265030  0.7426990589866745
  0.9373199072779862  0.0512871258081386  0.2058752702770506
  0.3954943628118416  0.0480594913483734  0.7389671650926625
  0.4443559039279717  0.5700828060469179  0.2550819447846402
  0.2918976883262345  0.7922351073653008  0.4713634523760910
  0.3954942464928201  0.3339949327353262  0.4914052912183881
  0.0342380779779704  0.4998777168121062  0.2145748154982603
  0.3545484508969050  0.7839287057356756  0.0054519129597274
  0.8894253294300971  0.0620561714029079  0.7538709812490703
  0.4413196707808261  0.3226507677112538  0.0228686617351663
 
  0.00000000E+00  0.00000000E+00  0.00000000E+00
  0.00000000E+00  0.00000000E+00  0.00000000E+00
  0.00000000E+00  0.00000000E+00  0.00000000E+00
  0.00000000E+00  0.00000000E+00  0.00000000E+00
  0.00000000E+00  0.00000000E+00  0.00000000E+00
  0.00000000E+00  0.00000000E+00  0.00000000E+00
  0.00000000E+00  0.00000000E+00  0.00000000E+00
  0.00000000E+00  0.00000000E+00  0.00000000E+00
  0.00000000E+00  0.00000000E+00  0.00000000E+00
  0.00000000E+00  0.00000000E+00  0.00000000E+00
