Dy F  Li Tl
 1.0000000000000000
     7.1928941213296698    0.0000000000000000    0.0000000000000000
    -1.2533424854514925    6.8751524528935937    0.0000000000000000
    -2.6228333347166060   -2.7099592273752506    6.4873120525508066
 Dy  F   Li  Tl 
   2  11   3   2
Cartesian
 -0.7758313969300660 -0.3394167393721261  2.4410787096468254
  1.6735013162917962  1.0792384526995331  0.1482110783512343
  3.7319739205131137  1.5770320068620169  0.5667490915325800
 -1.0265736871258295  1.6294638619512991  3.3197631226341384
  6.6345156514340733  0.6077842966273899  0.4101876688179033
  4.3404532668481544 -0.8403534017294870  2.3471546452582688
  5.5860570076317861  4.6250511763062780  1.4624091184113190
  0.9478672282942953  4.7289059040623984  4.3929576695461048
 -0.7613837114495182 -1.1752720297853751  4.4929237074347421
  3.3349382887293983  0.3972514411270324  5.1262511379924796
  1.1174723081195759  3.0827732665347432  0.5820981132013721
 -2.0935520235338272  3.1401351682441878  5.9882497975334710
  1.4587573699091452  0.2417147549668177  2.2962820829369748
 -0.3482579963505874  4.1383598405692341  0.0292070286618097
  2.5978201491411630 -1.1644640045154184  5.9254949386667386
  2.8817605074475501 -0.5844851284271043  3.5038837147218151
  3.9288618578753507  3.0058222920778603  3.0461099219859045
  0.4609245728504748  2.3654948239236231  5.3903710862226948
