Rb1 Ba1 Cd1 H2 F7
1.0
   4.1301765441894531    0.0000000000000000    1.0466557741165157
  -1.5848235998084308    6.3167425430901192    1.5705381631851196
   0.0000000000000000    0.0000000000000000    7.8527226448059082
Rb Ba Cd H F
1 1 1 2 7
direct
   0.6233069896697998    0.3609369695186615    0.7918908596038818 Rb
   0.4905800819396973    0.8477826118469238    0.2992319762706757 Ba
   0.1428625732660294    0.7937871813774109    0.8817349672317505 Cd
   0.0307622924447060    0.0693516358733177    0.5670624971389771 H
   0.9058645963668823    0.4774793088436127    0.2157878279685974 H
   0.1361274719238281    0.9903455972671508    0.0720961540937424 F
   0.9218694567680359    0.4198041260242462    0.0947114378213882 F
   0.8879545927047729    0.5639556050300598    0.3366070985794067 F
   0.5925105810165405    0.7332540154457092    0.9674237966537476 F
   0.1171581521630287    0.1178505569696426    0.6860186457633972 F
   0.9544634819030762    0.0103184562176466    0.4515946507453918 F
   0.2576382756233215    0.6553168296813965    0.6576285958290100 F
