K  F  Sn F  K  F                                                                                    
 1.000
    5.4175780455229559    0.0000000000000000    0.0000000000000000
   -0.2247168303995908    5.4309468867441355    0.0000000000000000
    1.9601818824709183    2.0878546014354109    5.6311736769528364
   F    K    Sn
    6    2    1
Direct
    0.5203339457511902    0.3783453702926636    0.3840763568878174      F1
    0.4364089965820313    0.2950187623500823    0.8926120996475220      F2
    0.8646345138549806    0.0250702537596226    0.3880831599235535      F3
    0.7810573577880864    0.9418035149574280    0.8956810832023621      F4
    0.9458866119384767    0.4484910964965819    0.5419645309448242      F5
    0.3550298213958741    0.8704060316085815    0.7383595108985901      F6
    0.3447086215019227    0.8550588488578795    0.3098052144050598      K1
    0.9561029672622682    0.4648847281932832    0.9708192348480225      K2
    0.6506463289260864    0.1597773730754853    0.6399586200714111     Sn1
