Li3 Mn2 F7                              
   1.00000000000000     
     4.9765092216717264    0.1274904122080019    0.1390753225803093
    -0.6082918669970279    5.4494472996154490   -1.3702526674257496
     0.3915565681744057    0.0467365557364798    5.4457252959691598
   Li   Mn   F 
     3     2     7
Direct
  0.4029045577732833  0.0690866922607620  0.1961685467634737
  0.9184577768277513  0.1944969061395891  0.8676544315196690
  0.4683941912608537  0.5373941888672027  0.8688827902792049
  0.8144764050434720  0.7390173991341016  0.4071307503625369
 -0.0249497238788380  0.4581969442261773  0.3914991301436733
  0.7490515707076292 -0.1066865839309856  0.7468926434594593
  0.2069314816307116  0.3500231340775578  0.0729329862533629
  0.0852354865564459 -0.0033334344958190  0.3734793753409171
  0.7097503134632963  0.2635474159499994  0.1834997992774406
  0.5724521143583883  0.7674701863880142  0.1722281928374597
  0.7770985665555957  0.3854249821707169  0.6895097059602278
  0.2828702606927551  0.5463891471838805  0.5817239592349374
 
  0.00000000E+00  0.00000000E+00  0.00000000E+00
  0.00000000E+00  0.00000000E+00  0.00000000E+00
  0.00000000E+00  0.00000000E+00  0.00000000E+00
  0.00000000E+00  0.00000000E+00  0.00000000E+00
  0.00000000E+00  0.00000000E+00  0.00000000E+00
  0.00000000E+00  0.00000000E+00  0.00000000E+00
  0.00000000E+00  0.00000000E+00  0.00000000E+00
  0.00000000E+00  0.00000000E+00  0.00000000E+00
  0.00000000E+00  0.00000000E+00  0.00000000E+00
  0.00000000E+00  0.00000000E+00  0.00000000E+00
  0.00000000E+00  0.00000000E+00  0.00000000E+00
  0.00000000E+00  0.00000000E+00  0.00000000E+00
