Cs2 Li1 As1 F6                          
   1.00000000000000     
     5.3537176613795969   -0.0118083354038835    0.0110996345145859
     0.0242492985047415    5.5738064850648978   -3.1942641308029813
    -0.0159497544119004   -0.0038142230690991    6.4393607270379620
   Cs   Li   As   F 
     2     1     1     6
Direct
  0.7068380207206962  0.5413801998281161  0.7532118435640017
  0.2672607709212875  0.2082470524637537  0.0868611820192505
  0.4856622915908705  0.8762957215571677  0.4191691440810033
  0.9863530374233789  0.8750112106651750  0.4205791563938073
  0.7412761259291739  0.5880023431567456  0.2782088040317607
  0.2348982877794387  0.7334415735259794  0.5646037368705633
  0.7360079947877401  0.0166386577216167  0.2764646359918710
  0.2344440438692333  0.1619198576676360  0.5635587305396701
  0.2359711170344140  0.7327199380500388  0.1353195537381253
  0.7386358931184723  0.0176648896516671  0.7051186488661382
 
  0.00000000E+00  0.00000000E+00  0.00000000E+00
  0.00000000E+00  0.00000000E+00  0.00000000E+00
  0.00000000E+00  0.00000000E+00  0.00000000E+00
  0.00000000E+00  0.00000000E+00  0.00000000E+00
  0.00000000E+00  0.00000000E+00  0.00000000E+00
  0.00000000E+00  0.00000000E+00  0.00000000E+00
  0.00000000E+00  0.00000000E+00  0.00000000E+00
  0.00000000E+00  0.00000000E+00  0.00000000E+00
  0.00000000E+00  0.00000000E+00  0.00000000E+00
  0.00000000E+00  0.00000000E+00  0.00000000E+00
