Li4 Mn2 F8
1.0
   5.0072507858276367    0.0000000000000000   -0.9136747121810925
  -0.3112579732144709    6.3123752405499669   -1.7847243547439575
   0.0000000000000000    0.0000000000000000    5.6078624725341797
Li Mn F
4 2 8
direct
   0.6939586997032166    0.3202446997165680    0.0009978727903217 Li
   0.2203009873628616    0.7176324725151062    0.1979048997163773 Li
   0.7021090388298035    0.1506338268518448    0.3937935829162598 Li
   0.7094293832778931    0.8031085133552551    0.0151873119175434 Li
   0.1903857141733170    0.4706023931503296    0.6494305729866028 Mn
   0.1918652653694153    0.9849274754524231    0.7141201496124268 Mn
   0.8926095962524414    0.3803813457489014    0.3373574912548065 F
   0.0186510309576988    0.7555736303329468    0.8714852929115295 F
   0.3688580393791199    0.7060454487800598    0.5286803245544434 F
   0.5207589864730835    0.0521296747028828    0.0284769777208567 F
   0.4247760772705078    0.1961118280887604    0.5824278593063354 F
   0.4828309118747711    0.5712971687316895    0.0000036954879761 F
   0.9277957081794739    0.9068651795387268    0.3547755777835846 F
   0.9789460897445679    0.2646183967590332    0.8118935823440552 F
