V1 O1 F3                                
   1.00000000000000     
     4.4381139956819027    0.0081764630169274   -0.8220545735371241
    -0.3980922018409991    3.7192485040471981   -2.4788866245092520
    -0.0683296356603241   -0.0855005693154868    5.9402219789417208
   V    O    F 
     1     1     3
Direct
  0.0812823893994553  0.2953190260727035  0.7258987030123800
  0.8313545799919807  0.3461853062010814  0.5264547766779349
  0.3416030734775315  0.6851482218593502  0.9292404865978697
  0.2562393088198568  0.9145317647115707  0.5174829107948846
  0.8982325436578176  0.2366343192416134  0.9329715509755554
 
  0.00000000E+00  0.00000000E+00  0.00000000E+00
  0.00000000E+00  0.00000000E+00  0.00000000E+00
  0.00000000E+00  0.00000000E+00  0.00000000E+00
  0.00000000E+00  0.00000000E+00  0.00000000E+00
  0.00000000E+00  0.00000000E+00  0.00000000E+00
