Pb4 F8
1.0
   4.1437911987304688    0.0000000000000000   -0.6071591377258296
  -2.0129438269426867    3.6385747081066877    0.6322606801986694
   0.0000000000000000    0.0000000000000000   14.0721693038940430
Pb F
4 8
direct
   0.3732953667640686    0.6034723520278931    0.5325955748558044 Pb
   0.1135758459568024    0.8564560413360596    0.7817818522453307 Pb
   0.8711651563644409    0.1091963723301888    0.0302270967513323 Pb
   0.6247587203979492    0.3595467805862427    0.2817849516868591 Pb
   0.7569736838340759    0.2131419330835342    0.7198036909103394 F
   0.9363771677017212    0.0488641075789929    0.2129290848970413 F
   0.0554412752389908    0.9196376800537109    0.5880002379417419 F
   0.4639606177806854    0.5023437142372131    0.8428159356117247 F
   0.3140508830547333    0.6714438199996949    0.3501833379268646 F
   0.1815097630023956    0.7931544780731201    0.9722461104393004 F
   0.6838077306747437    0.2940735220909119    0.4659104943275451 F
   0.5589667558670044    0.4191139638423920    0.0961774587631226 F
