Bi1 F3                                  
   1.00000000000000     
     4.1176661904302598    0.0412476145452661   -1.6162570092118311
    -0.9432816928208466    3.6808734436928154   -1.9941569786099196
     0.0636725463074033    0.0438015177509490    4.0087655472531862
   Bi   F 
     1     3
Direct
  0.9462600100409048  0.8326152583743146  0.6365815908650013
  0.1386583788416060  0.1098823418601761  0.3124549846308695
  0.9149301228641260  0.4139776544954624  0.8749055296634959
  0.4795162112205109  0.8754308612788052  0.8445529836563219
 
  0.00000000E+00  0.00000000E+00  0.00000000E+00
  0.00000000E+00  0.00000000E+00  0.00000000E+00
  0.00000000E+00  0.00000000E+00  0.00000000E+00
  0.00000000E+00  0.00000000E+00  0.00000000E+00
