Cs1 Sm1 F4                              
   1.00000000000000     
     4.4953896641848159    0.0014022556507777   -0.0074499922536148
    -0.0215974212640059    4.4961303565251409   -0.0171330552582699
     0.0131317053405249    0.0257503250426918    7.3805481926891323
   Cs   Sm   F 
     1     1     4
Direct
  0.0999779502341603  0.2513090277987063  0.9305813735714495
  0.6000048060477997  0.7516399696764464  0.4304913588533709
  0.5989226419934683  0.7513768045402588  0.7309766012065959
  0.6008773074275677  0.2516174028253475  0.4298305546354939
  0.5995614083068707  0.7520803332767341  0.1297370237982063
  0.1003487596468830  0.7514725248765102  0.4300088400858957
 
  0.00000000E+00  0.00000000E+00  0.00000000E+00
  0.00000000E+00  0.00000000E+00  0.00000000E+00
  0.00000000E+00  0.00000000E+00  0.00000000E+00
  0.00000000E+00  0.00000000E+00  0.00000000E+00
  0.00000000E+00  0.00000000E+00  0.00000000E+00
  0.00000000E+00  0.00000000E+00  0.00000000E+00
