H5 Se2 O5 F3
1.0
   4.8705935478210440    0.0000000000000000    1.3934667110443117
   1.7896274142934203    5.3995722866094269    0.7430301308631895
   0.0000000000000000    0.0000000000000000    7.7272548675537109
H Se O F
5 2 5 3
direct
   0.2085436582565307    0.8734296560287477    0.3759311437606812 H
   0.1753328293561935    0.4887477457523347    0.7709097266197205 H
   0.8855556845664978    0.5012108087539674    0.8800335526466369 H
   0.2698998153209686    0.1983075439929962    0.5963137745857239 H
   0.7736346721649171    0.8941597938537598    0.3033497631549835 H
   0.2011490166187286    0.7094138860702515    0.1090381741523743 Se
   0.7068482637405396    0.0562404990196228    0.6907463669776917 Se
   0.0135191408917308    0.5939466357231140    0.8608894348144530 O
   0.9942417740821838    0.1048696041107178    0.5359047651290894 O
   0.3416836857795715    0.7499107122421265    0.2850453853607178 O
   0.8500484228134155    0.9116829633712770    0.1693585366010666 O
   0.4038343429565429    0.2794530391693115    0.6228205561637878 O
   0.6845127344131470    0.3085336089134216    0.8439888954162597 F
   0.6727850437164307    0.8402196764945984    0.5280207395553589 F
   0.1101483404636383    0.4420393407344818    0.2226941734552383 F
