Rb3 La1 Nd2 F12
1.0
   6.3244228363037127    0.0000000000000000   -3.7238693237304674
  -2.1923747002402361    7.3189413039942259   -1.2753742933273315
   0.0000000000000000    0.0000000000000000    7.3414192199707031
Rb La Nd F
3 1 2 12
direct
   0.1884586811065674    0.9819926619529724    0.0264250095933676 Rb
   0.8535885214805604    0.9818473458290101    0.3600064814090729 Rb
   0.5204766392707825    0.9804574251174927    0.6918362379074097 Rb
   0.0210569798946381    0.4815623164176941    0.1930502206087112 La
   0.6882040500640870    0.4818803369998932    0.5252767205238342 Nd
   0.3542691767215729    0.4821292161941528    0.8596518039703369 Nd
   0.7054708600044252    0.5425774455070496    0.2125526070594788 F
   0.6641054749488832    0.4194165766239166    0.8358167409896851 F
   0.2514997124671936    0.1757838279008866    0.7574040293693542 F
   0.3781797587871552    0.5475004911422729    0.5499120950698853 F
   0.4544362723827363    0.7882117033004761    0.9624802470207214 F
   0.0007155705243349    0.4210752248764038    0.5070219039916992 F
   0.7904136776924134    0.7880768179893494    0.6288486123085022 F
   0.0399751774966717    0.5391294360160828    0.8753497004508972 F
   0.3364511728286744    0.4210924506187439    0.1743338108062744 F
   0.1229094415903092    0.7933092117309570    0.2942821085453033 F
   0.5871437788009644    0.1760610491037369    0.4248823225498199 F
   0.9175899624824525    0.1711171418428421    0.0880289822816849 F
