Cs F  K  Li
 1.0000000000000000
     5.9214563516553893    0.0000000000000000    0.0000000000000000
     0.6600054621915977    6.2988781493234072    0.0000000000000000
     2.8677362376543152    1.2132970424028238    7.0807568743437317
 Cs  F   K   Li 
   1   8   3   4
Cartesian
  7.1731283684350222  6.6499926881018467  6.0724488901877054
  6.0384326944731734  3.3461218082839457  1.4352640655356697
  2.4229830560230816  5.4403572213486227  1.2693087207817388
  3.1463021292847362  4.4662110357993079  5.0048425991875005
  7.5345747076813199  2.0453605450727843  3.7007255291897350
  5.1658834148072463  0.5203107543723675  1.6805517131125507
  4.6100009371871655  2.1728444814763117  4.0373570142108672
  6.1425036075742545  3.4458155468410632  6.2243618149768229
  6.1719826602799213  4.8970211613472765  3.8723328084405448
  3.5562534085882787  2.5574489922536419  6.8397023481291583
  3.8883905965511052  6.3270196709913487  3.2993772997760704
  3.3267436144247222  3.0044678036917252  1.6825418710172331
  4.9291741049476983  3.8244948185816261  4.7600491674745546
  5.9284636885377466  1.9566143781158594  2.7480670532001343
  7.4254729967128084  3.6834978673902476  4.6249581520831340
  6.6273571583179445  5.0911724872132380  2.0051787327828525
