Mg2 Fe2 F8                              
   1.00000000000000     
     3.0636155607724174    0.0003440865547269    0.0006400080811567
     0.0003938376446096    4.6395926197032260   -0.0031451305982626
     0.0016234395365947    0.0046463042370750    9.2769578979045537
   Mg   Fe   F 
     2     2     8
Direct
  0.0547250614360042  0.5391774451284296  0.1429718448553010
  0.5547331832679099  0.0394035601275145  0.3971173492326008
  0.5547779990169015  0.0338500582929131  0.8912430634332602
  0.0548833592830340  0.5341054947647706  0.6490992269634352
  0.0547370430347010  0.2339276923338632  0.4959714798898615
  0.0548282692647328  0.8342462734228969  0.7977265305927298
  0.5549531632658633  0.7285169568637930  0.5507276586610708
  0.5547212804928096  0.7330752101712121  0.0435859393475738
  0.0547855262365631  0.8438191575922793  0.2974481787421173
  0.5551317432208281  0.3342132068841400  0.7423552603896549
  0.5547655825339498  0.3436552999641683  0.2426629598171853
  0.0545282069171216  0.2275895238869359 -0.0103026176972670
 
  0.00000000E+00  0.00000000E+00  0.00000000E+00
  0.00000000E+00  0.00000000E+00  0.00000000E+00
  0.00000000E+00  0.00000000E+00  0.00000000E+00
  0.00000000E+00  0.00000000E+00  0.00000000E+00
  0.00000000E+00  0.00000000E+00  0.00000000E+00
  0.00000000E+00  0.00000000E+00  0.00000000E+00
  0.00000000E+00  0.00000000E+00  0.00000000E+00
  0.00000000E+00  0.00000000E+00  0.00000000E+00
  0.00000000E+00  0.00000000E+00  0.00000000E+00
  0.00000000E+00  0.00000000E+00  0.00000000E+00
  0.00000000E+00  0.00000000E+00  0.00000000E+00
  0.00000000E+00  0.00000000E+00  0.00000000E+00
