Pr2 Zr2 F14                             
   1.00000000000000     
     5.7721502264460538   -0.0868875303329254    1.7298726290996098
    -1.1794528774368049    5.6514963375977274   -1.7289616630632902
    -0.0557722286615901    0.0490454481017972    9.0178088800520406
   Pr   Zr   F 
     2     2    14
Direct
  0.9287800307744271  0.6669029626904934  0.7213371231237007
  0.2417317201755705  0.3496804693722664  0.2851705169024032
  0.6242071857978108  0.9666723910175089  0.4513546260014054
  0.2028924995048910  0.3913030088390747  0.9264996494423352
  0.2493409083315780  0.7321926176172605  0.4958276731244001
  0.4703109229479488  0.1214428119174448  0.3436207611667706
  0.9832898321814615  0.6174010498119040  0.9604609733847435
  0.9623941320002533  0.2957627059221395  0.1288265850213410
  0.1773764711882982  0.4149631513400257  0.6973041069404062
  0.3787851735879467  0.2105432978801494  0.0078411863910462
  0.8598205024075630  0.3387594595940166  0.4990420768032291
  0.7584712586295901  0.8337540217520236  0.5845838291862233
  0.3042937504126190  0.6305588906238354  0.1276763307180807
  0.4674438083753198  0.1191942693150409  0.6676397986161998
  0.9574262088491238  0.9858446559062658  0.3072916110087774
  0.6055729446893692  0.6316081324414173  0.3106009708568513
  0.0072083405782772  0.0611752369608334  0.8412041865796202
  0.5340545542807809  0.5823569947277153  0.8392422551341926
 
  0.00000000E+00  0.00000000E+00  0.00000000E+00
  0.00000000E+00  0.00000000E+00  0.00000000E+00
  0.00000000E+00  0.00000000E+00  0.00000000E+00
  0.00000000E+00  0.00000000E+00  0.00000000E+00
  0.00000000E+00  0.00000000E+00  0.00000000E+00
  0.00000000E+00  0.00000000E+00  0.00000000E+00
  0.00000000E+00  0.00000000E+00  0.00000000E+00
  0.00000000E+00  0.00000000E+00  0.00000000E+00
  0.00000000E+00  0.00000000E+00  0.00000000E+00
  0.00000000E+00  0.00000000E+00  0.00000000E+00
  0.00000000E+00  0.00000000E+00  0.00000000E+00
  0.00000000E+00  0.00000000E+00  0.00000000E+00
  0.00000000E+00  0.00000000E+00  0.00000000E+00
  0.00000000E+00  0.00000000E+00  0.00000000E+00
  0.00000000E+00  0.00000000E+00  0.00000000E+00
  0.00000000E+00  0.00000000E+00  0.00000000E+00
  0.00000000E+00  0.00000000E+00  0.00000000E+00
  0.00000000E+00  0.00000000E+00  0.00000000E+00
