Rb2 Li3 F5
1.0
   5.0653796195983887    0.0000000000000000    2.5399389266967782
   1.2280371085093111    4.9054755224066389    3.7729406356811523
   0.0000000000000000    0.0000000000000000    6.3095698356628418
Rb Li F
2 3 5
direct
   0.8563704490661621    0.8075590133666992    0.5705555677413940 Rb
   0.4763343632221222    0.1887425035238266    0.9503456950187684 Rb
   0.1656477004289627    0.4975864887237548    0.2613047659397125 Li
   0.1217205524444580    0.0398341044783592    0.8047890663146973 Li
   0.7053048610687257    0.4585070312023163    0.2215029746294021 Li
   0.9120998978614807    0.2482342272996902    0.0163762550801038 F
   0.4004165828227997    0.7357769608497620    0.0253772977739573 F
   0.9278066754341125    0.7356660962104797    0.0262444950640202 F
   0.4007279872894287    0.2617180943489075    0.4976665079593659 F
   0.9306986331939697    0.2608918547630310    0.4980790913105012 F
