Li2 Sb3 F11
1.0
   5.4179925918579102    0.0000000000000000   -0.0564472377300254
   0.2065387779145119    5.8324447441313829   -0.1073552891612057
   0.0000000000000000    0.0000000000000000    7.3768129348754883
Li Sb F
2 3 11
direct
   0.2260979115962982    0.8545768260955811    0.8840806484222411 Li
   0.2294065803289413    0.8594929575920104    0.4216995537281036 Li
   0.6508175730705261    0.9223064780235289    0.1512656211853027 Sb
   0.8162422776222229    0.5587157011032104    0.6499595046043396 Sb
   0.1117186769843102    0.3492014110088348    0.1530145853757858 Sb
   0.4707353115081787    0.1214058175683022    0.3315950334072113 F
   0.4705130457878113    0.1139395013451576    0.9690389037132262 F
   0.7620835304260254    0.4461689591407776    0.1540420055389404 F
   0.3203183710575104    0.7735240459442139    0.1503593027591705 F
   0.5845054984092712    0.7338681817054749    0.4738085269927978 F
   0.9855238199234009    0.1042305454611778    0.9749033451080321 F
   0.9889432787895203    0.1080061271786690    0.3292618393898010 F
   0.0063434690237045    0.8507403731346129    0.6522042751312256 F
   0.0621875040233135    0.5549124479293823    0.8834981918334960 F
   0.5810848474502563    0.7198376655578613    0.8300005793571471 F
   0.0771342590451241    0.5541894435882568    0.4172354638576507 F
