K3 Li2 F5
1.0
   5.0030822753906250    0.0000000000000000   -3.4036529064178462
  -0.8843037188963625    5.1366198530709655    1.4805858135223382
   0.0000000000000000    0.0000000000000000    6.0495743751525879
K Li F
3 2 5
direct
   0.5728310346603394    0.1015471518039703    0.2949589788913726 K
   0.3327264487743377    0.4077396690845489    0.5321665406227112 K
   0.8098821640014648    0.7912665009498596    0.0574933923780918 K
   0.0017988602630794    0.3756169974803925    0.8650385737419128 Li
   0.1396536082029342    0.8258003592491149    0.7250235080718994 Li
   0.3208428919315338    0.6053835749626160    0.0430589392781258 F
   0.3179939389228821    0.8984267115592957    0.5460895299911499 F
   0.8239904642105103    0.3012942373752594    0.0428449772298336 F
   0.8224787116050720    0.5948238372802734    0.5480841398239136 F
   0.0725927725434303    0.1002078950405121    0.7967585921287537 F
