Ca1 Ti1 F6                              
   1.00000000000000     
     5.2981438412202966   -0.0024217638578962   -1.1625783734637698
    -2.6384953649166536    4.3942480253588956    0.5449594502657394
     0.0270423931256808    0.0079761355246816    5.2406124288676663
   Ca   Ti   F 
     1     1     6
Direct
  0.2315289425090508  0.8944860566059718  0.4957954568788560
  0.7332616692541188  0.8974652614729086  0.9957350157888266
  0.7862271756099419  0.6073308126291501  0.2159492394725482
  0.6810696468546779  0.1861491994702593  0.7736006411933490
  0.4915780758872124  0.8944369498410268  0.2104928540504976
  0.0729170284210314  0.1866184587643059  0.2212050662429935
  0.3928164365893622  0.6067114896424974  0.7714120770526055
  0.9751632755483750  0.8996076471136591  0.7816254169661587
 
  0.00000000E+00  0.00000000E+00  0.00000000E+00
  0.00000000E+00  0.00000000E+00  0.00000000E+00
  0.00000000E+00  0.00000000E+00  0.00000000E+00
  0.00000000E+00  0.00000000E+00  0.00000000E+00
  0.00000000E+00  0.00000000E+00  0.00000000E+00
  0.00000000E+00  0.00000000E+00  0.00000000E+00
  0.00000000E+00  0.00000000E+00  0.00000000E+00
  0.00000000E+00  0.00000000E+00  0.00000000E+00
