Li1 Al1 H7 O4 F3                        
   1.00000000000000     
     4.8953556391646007    0.0809305342788190   -0.6173241033449715
     1.0029471802056187    5.0897363608205168    0.2271519139495407
    -0.0157336958878704   -0.0758876188484406    6.3858257329273238
   Li   Al   H    O    F 
     1     1     7     4     3
Direct
  0.4340891669592131  0.9012545126156780  0.5666402085146004
  0.7103965725514833  0.3596905731930292  0.8789943059394684
  0.9925405936224807  0.3016690731595739  0.5775107096384615
  0.6200606275292315  0.3439974320703457  0.2280903080134292
  0.1138415260533755  0.5129106641527470  0.7228022526625195
  0.8207075816929451  0.9320828801202283  0.3690685733415202
  0.6357101819859277  0.7500193722714661  0.2407178485884920
  0.2337530217125907  0.0890666469347706  0.9855467147108610
  0.0860235815145031  0.1304455094892367  0.1968223692128760
  0.6069042212725615  0.4816511503887407  0.1178519521508433
  0.0539573250396873  0.1414779919963170  0.0375184905696961
  0.6279417254946664  0.9105550860575656  0.3262899626702335
  0.9406808270917230  0.4420753789684860  0.6867905748279000
  0.0841441683204697  0.0940796504727582  0.4448090820556580
  0.4202289351860567  0.5889180020152379  0.7215835666898944
  0.5776210462060184  0.0875134680592086  0.7948266730382109
 
  0.00000000E+00  0.00000000E+00  0.00000000E+00
  0.00000000E+00  0.00000000E+00  0.00000000E+00
  0.00000000E+00  0.00000000E+00  0.00000000E+00
  0.00000000E+00  0.00000000E+00  0.00000000E+00
  0.00000000E+00  0.00000000E+00  0.00000000E+00
  0.00000000E+00  0.00000000E+00  0.00000000E+00
  0.00000000E+00  0.00000000E+00  0.00000000E+00
  0.00000000E+00  0.00000000E+00  0.00000000E+00
  0.00000000E+00  0.00000000E+00  0.00000000E+00
  0.00000000E+00  0.00000000E+00  0.00000000E+00
  0.00000000E+00  0.00000000E+00  0.00000000E+00
  0.00000000E+00  0.00000000E+00  0.00000000E+00
  0.00000000E+00  0.00000000E+00  0.00000000E+00
  0.00000000E+00  0.00000000E+00  0.00000000E+00
  0.00000000E+00  0.00000000E+00  0.00000000E+00
  0.00000000E+00  0.00000000E+00  0.00000000E+00
