Na2 Nd1 Bi1 F8
1.0
   5.3354668617248535    0.0000000000000000    0.0099734775722026
   0.0130401727433778    5.9530635109033767   -3.9238376617431636
   0.0000000000000000    0.0000000000000000    6.3070516586303711
Na Nd Bi F
2 1 1 8
direct
   0.6881726980209351    0.1403998434543610    0.5925466418266296 Na
   0.1887055635452271    0.6401202678680420    0.0914275124669075 Na
   0.1887106746435165    0.1402527093887329    0.0917366966605186 Nd
   0.6882812976837158    0.6399874687194824    0.5921960473060608 Bi
   0.8819210529327393    0.4956228137016296    0.7789444923400880 F
   0.9954711198806763    0.9930682182312011    0.2824871838092803 F
   0.3861958682537079    0.7978439927101135    0.8953021764755250 F
   0.4948571920394897    0.7852523922920227    0.4051876068115235 F
   0.3813480436801910    0.2870758473873138    0.9016127586364747 F
   0.8842618465423584    0.9813086986541748    0.7894421815872193 F
   0.9912320971488953    0.4825849831104279    0.2885177135467529 F
   0.4921359419822693    0.2986414432525635    0.3947926163673401 F
