Y1 F3                                   
   1.00000000000000     
     3.5298021533820165    0.0028870531945711    2.0092323560752923
    -0.0099788969549864    4.3654940587193485   -0.0403352314040621
     0.0133585740116116    0.0049926751774547    4.0755196965771754
   Y    F 
     1     3
Direct
  0.8779132132336283  0.9064096442506347  0.8224624243611736
  0.2108343309584561  0.9036354572617874  0.1552128213226663
  0.8779007400731965  0.4063103330988585  0.8226994091059312
  0.5441094153435219  0.9099332476110855  0.4895700982610330
 
  0.00000000E+00  0.00000000E+00  0.00000000E+00
  0.00000000E+00  0.00000000E+00  0.00000000E+00
  0.00000000E+00  0.00000000E+00  0.00000000E+00
  0.00000000E+00  0.00000000E+00  0.00000000E+00
