Li4 Fe1 F6
1.0
   5.0698204040527344    0.0000000000000000   -0.8488141894340517
  -1.2483643730916609    4.2661054029305081   -2.5124955177307133
   0.0000000000000000    0.0000000000000000    5.1068444252014160
Li Fe F
4 1 6
direct
   0.1577845811843872    0.2141770869493484    0.3008753657341003 Li
   0.6553441286087035    0.7038106322288512    0.8118672966957092 Li
   0.6546124219894409    0.0548175573348999    0.4588023126125336 Li
   0.6555849909782410    0.3873879015445709    0.1281985789537430 Li
   0.1567527204751968    0.8804838061332702    0.6347461938858032 Fe
   0.8995082974433899    0.1018199920654297    0.8807438611984253 F
   0.4129405617713928    0.6357193589210510    0.4143031239509583 F
   0.8851534724235535    0.8112379312515259    0.2304106950759889 F
   0.4184256792068481    0.9949913024902344    0.0602803081274033 F
   0.4270318150520325    0.2853083312511444    0.7031828761100769 F
   0.8941451311111450    0.4550449550151825    0.5198882222175598 F
