Rb4 Nd1 F6
1.0
   6.7435050010681152    0.0000000000000000    1.0623795986175539
   1.6151979022188387    5.7060105156473169   -3.5734164714813228
   0.0000000000000000    0.0000000000000000    6.9407057762145996
Rb Nd F
4 1 6
direct
   0.5813029408454894    0.4557221233844757    0.2932014763355255 Rb
   0.0806879997253418    0.6081921458244324    0.1395672112703323 Rb
   0.5808109641075134    0.1176090314984322    0.6311595439910889 Rb
   0.0815072208642960    0.2863131463527679    0.4610591828823090 Rb
   0.5817083120346068    0.7960583567619324    0.9513704180717468 Nd
   0.3692141175270081    0.5587562322616577    0.7461380958557129 F
   0.3750671446323395    0.8571269512176514    0.2923744022846222 F
   0.7870193719863892    0.4549033641815186    0.8903414607048035 F
   0.3713249862194061    0.1555619537830353    0.0376590676605701 F
   0.7922769188880920    0.0032526254653931    0.1905307620763779 F
   0.7946432828903198    0.7087767720222473    0.5945655703544617 F
