Cs1 Bi1 F4                              
   1.00000000000000     
     4.0716083803034229    0.0035540406998568   -0.0117950071909288
    -0.0329888982534535    4.0720301013809097   -0.0165979247774477
     0.0024825810800567    0.0034341398749940    7.0546617298547663
   Cs   Bi   F 
     1     1     4
Direct
  0.9292207230885999  0.8548881125748214  0.0696018848820226
  0.4291400672675007  0.3561111902390154  0.5692976198204273
  0.9287897529236580  0.3548897006397886  0.3820141914944352
  0.4293142762943270  0.8549172377008357  0.3822039066486579
  0.9294480357112379  0.3550513213891366  0.7561950940596984
  0.4291909640849464  0.8563061408980220  0.7560825480507751
 
  0.00000000E+00  0.00000000E+00  0.00000000E+00
  0.00000000E+00  0.00000000E+00  0.00000000E+00
  0.00000000E+00  0.00000000E+00  0.00000000E+00
  0.00000000E+00  0.00000000E+00  0.00000000E+00
  0.00000000E+00  0.00000000E+00  0.00000000E+00
  0.00000000E+00  0.00000000E+00  0.00000000E+00
