Y1 Ho1 Cd1 F8
1.0
   5.4608945846557617    0.0000000000000000    0.0082992315292357
   0.0190063032624890    5.5473011575037274    0.0028367077466099
   0.0000000000000000    0.0000000000000000    5.4378762245178223
Y Ho Cd F
1 1 1 8
direct
   0.2231034189462662    0.0529062263667584    0.1587122529745102 Y
   0.7228461503982544    0.0525845251977444    0.6582188010215759 Ho
   0.7228550314903259    0.5527353286743165    0.1578468978404999 Cd
   0.9618601799011230    0.8253709077835083    0.3996577858924866 F
   0.9622741341590881    0.2797076404094696    0.9169660210609436 F
   0.4835364222526550    0.2802093625068665    0.9183969497680664 F
   0.4852415919303894    0.2805153131484985    0.3985956013202667 F
   0.9607399106025696    0.8264367580413819    0.9174528121948242 F
   0.4837322831153870    0.8252589702606202    0.9167099595069885 F
   0.4836089909076691    0.8264458775520325    0.3981528580188751 F
   0.9622721672058105    0.2796716392040253    0.3986417949199677 F
