F  Nd Sr
 1.0000000000000000
     5.7908622023289089    0.0000000000000000    0.0000000000000000
     0.2695026387348117    6.1500890263629957    0.0000000000000000
     0.5728348869899144    2.7243552643228997    8.5373074583638999
 F   Nd  Sr 
  13   3   2
Cartesian
  2.9495606185831948  3.4163813827896470  6.4740479164042641
  2.7976009726538527  1.6160246596576648  3.6830651784759758
  1.6724096377266147  2.8891272330500239  0.1665190507318332
  3.9353476739562652  7.3819644957929329  7.5862966263054652
  6.2264008845256971  6.6905907167657892  6.5786035248057146
  4.0205887323223450  5.7876928905774419  5.1383797748500735
  5.1656207199468360  1.0020218189895964  1.0512169960504605
  5.3807872062950848  4.2440922305837629  1.3031100576741810
  5.1747269428277258  3.5043114356583156  3.7547535686165436
  5.9153404336281943  6.9882826525687989  3.6543922649630050
  5.7926854890672628  3.2992588227121806  6.6695887699657534
  2.3577793598252565  4.2300055124846780  2.6289660449909880
  2.3258548476236296  0.5233094277157745  1.3616069332096501
  4.1715969782622500  5.6081303591886273  2.7906244982506982
  4.4156168200497614  1.9020653775952985  5.4821774065734976
  1.0117024435707946  2.4026754168441400  2.2607422174098795
  4.4707603654808050  5.0460370212594228  7.6605397640331603
  1.7111255571866497  8.1344285937927054  8.1661090710734889
