Li3 Mn2 F7
1.0
   5.2430987358093262    0.0000000000000000   -0.6692042946815502
  -1.3221287143526872    5.0872954340839582   -0.5662378072738650
   0.0000000000000000    0.0000000000000000    5.6073994636535645
Li Mn F
3 2 7
direct
   0.6667364835739136    0.8685080409049988    0.5172669887542725 Li
   0.9543286561965943    0.4216004312038421    0.5589053630828857 Li
   0.2541121840476990    0.9864659309387207    0.7095847129821777 Li
   0.1045601889491081    0.8939229846000670    0.1678924262523651 Mn
   0.5489531755447388    0.5064977407455444    0.9335587620735168 Mn
   0.8925848007202150    0.7374035716056824    0.8058253526687622 F
   0.6050980687141418    0.1988607347011566    0.6781988143920898 F
   0.2295487970113755    0.2195225805044174    0.9943851828575134 F
   0.0224935766309500    0.0856732130050659    0.4701939523220062 F
   0.3412558138370514    0.6588859558105469    0.6529441475868225 F
   0.8442357182502747    0.5575501322746277    0.2588078975677490 F
   0.4651721715927125    0.8165405988693237    0.1827177852392197 F
