Ca1 Al1 F5
1.0
   3.4751851558685307    0.0000000000000000    1.2305244207382193
   1.3752227948751015    5.0155620011361135    1.6041601896286015
   0.0000000000000000    0.0000000000000000    5.4541339874267578
Ca Al F
1 1 5
direct
   0.4000197052955628    0.6568347811698914    0.0391234569251537 Ca
   0.8996554017066956    0.1569146513938904    0.5392045378684998 Al
   0.9003745913505555    0.8741951584815978    0.8212915658950806 F
   0.1213366836309434    0.9346110820770263    0.3171702027320862 F
   0.6779227256774902    0.3790325522422791    0.7603493928909302 F
   0.3999360501766205    0.1570457965135574    0.5387403964996338 F
   0.8997991085052490    0.4393636882305145    0.2565634250640870 F
