Rb1 Bi1 F4
1.0
   4.6648316383361816    0.0000000000000000    0.0262559223920109
   0.0067572774272603    4.2222221661983745    0.0199257414788008
   0.0000000000000000    0.0000000000000000    6.0336999893188477
Rb Bi F
1 1 4
direct
   0.2327990233898163    0.7242389917373656    0.4830272793769837 Rb
   0.7312386631965637    0.2231486886739731    0.9601112604141236 Bi
   0.7332977056503296    0.7265794873237609    0.1852925568819046 F
   0.7342060208320618    0.7226087450981139    0.7922526001930237 F
   0.7321968078613281    0.2234464883804321    0.5877668857574463 F
   0.2324408590793610    0.2215503901243210    0.9838661551475526 F
