Na1 H1 F2
1.0
   3.2203996181488037    0.0000000000000000    1.1984454393386843
   1.3997734101199202    2.8834308515707590    1.1907670497894287
   0.0000000000000000    0.0000000000000000    5.0018877983093262
Na H F
1 1 2
direct
   0.3754818141460419    0.2330059707164765    0.5491532683372498 Na
   0.8753061294555664    0.7330828905105591    0.0486281178891658 H
   0.9580717086791991    0.8161571621894838    0.8010699152946472 F
   0.7940506935119629    0.6503603458404541    0.2965808212757111 F
