F  H  B  F  K                                                                                       
 1.000
    4.8257331055934536    0.0000000000000000    0.0000000000000000
   -0.4152745870807881    4.8692779188963353    0.0000000000000000
   -0.4101272889247876    2.2559350283864679    4.5292100060534812
   B    F    H    K 
    1    5    1    1
Direct
    0.6632110476493837    0.7048352956771851    0.8584879040718079      B1
    0.5480111241340637    0.4082300662994386    0.8823414444923400      F1
    0.9590962529182434    0.6970198750495911    0.8792681097984314      F2
    0.5658850073814392    0.7368384003639221    0.0943749621510506      F3
    0.1343285888433456    0.3787605166435242    0.5545643568038940      F4
    0.5688493847846986    0.9331103563308716    0.5862277150154114      F5
    0.3122803866863251    0.3916845917701722    0.6563497781753540      H1
    0.0619840696454048    0.0367825292050839    0.2457348108291626      K1
