Ba1 Bi1 F5                              
   1.00000000000000     
     4.0273204791288366   -0.0019400997524705    0.0049275652472135
     0.0041790790038981    4.0258421911834787    0.0037108221224625
    -0.0038113996649207   -0.0002361078808511    6.7711766965626987
   Ba   Bi   F 
     1     1     5
Direct
  0.8616464637648376  0.7280899189149017  0.5561420060572848
  0.3619854055879930  0.2276148210728343  0.0560036423670797
  0.8622198547753995  0.2277439751339482  0.8623539361810202
  0.3624598125916264  0.7280947768937180  0.8626795465397020
  0.3616330562228010  0.7278923831269136  0.2493331374224205
  0.3614105909780478  0.2283142307659093  0.5560073426177735
  0.8615559081222177  0.2276078038903968  0.2492858588044959
 
  0.00000000E+00  0.00000000E+00  0.00000000E+00
  0.00000000E+00  0.00000000E+00  0.00000000E+00
  0.00000000E+00  0.00000000E+00  0.00000000E+00
  0.00000000E+00  0.00000000E+00  0.00000000E+00
  0.00000000E+00  0.00000000E+00  0.00000000E+00
  0.00000000E+00  0.00000000E+00  0.00000000E+00
  0.00000000E+00  0.00000000E+00  0.00000000E+00
