Li5 Mn2 F9                              
   1.00000000000000     
     4.8174065303551137    0.7254937122190247   -1.2862983665105892
     3.0000174965872062    4.5708105816209930    0.9608891830639265
     0.3453464168587699   -0.9244527658251709    8.1352343125709794
   Li   Mn   F 
     5     2     9
Direct
  0.1546395380220271  0.2049459319564848  0.1491519469730154
  0.4968275087379270  0.3569834618839093  0.7215074917048635
  0.3028562289653293  0.5897725655124497  0.0752970959886826
  0.7005760244307150  0.2033397685399228  0.4649209825184474
  0.9502012075386831  0.8170829834555109  0.2885525108297598
  0.5228732625757496  0.8108382457503958  0.8571942674506058
  0.7867009474816135  0.7151382714819710  0.7119083170816047
  0.4201200732724655  0.1335318411390863  0.5578583969427257
  0.0252229458622309  0.8947141922855771  0.8193209319729721
  0.2482984125620845  0.2687416434903762  0.8486643152946787
  0.5313067019570211  0.2112444373817153  0.2384613905725845
  0.2686930242997258  0.8300877482378104  0.2179660730706536
  0.6806254386699324  0.4897438638417231  0.5902599603813079
  0.6701489183938513  0.4084627527317777  0.9515161764301374
  0.0279298298504566  0.7343390082442390  0.5413509868957229
  0.8511135675367038  0.6890807396162922  0.0833312809074988
 
  0.00000000E+00  0.00000000E+00  0.00000000E+00
  0.00000000E+00  0.00000000E+00  0.00000000E+00
  0.00000000E+00  0.00000000E+00  0.00000000E+00
  0.00000000E+00  0.00000000E+00  0.00000000E+00
  0.00000000E+00  0.00000000E+00  0.00000000E+00
  0.00000000E+00  0.00000000E+00  0.00000000E+00
  0.00000000E+00  0.00000000E+00  0.00000000E+00
  0.00000000E+00  0.00000000E+00  0.00000000E+00
  0.00000000E+00  0.00000000E+00  0.00000000E+00
  0.00000000E+00  0.00000000E+00  0.00000000E+00
  0.00000000E+00  0.00000000E+00  0.00000000E+00
  0.00000000E+00  0.00000000E+00  0.00000000E+00
  0.00000000E+00  0.00000000E+00  0.00000000E+00
  0.00000000E+00  0.00000000E+00  0.00000000E+00
  0.00000000E+00  0.00000000E+00  0.00000000E+00
  0.00000000E+00  0.00000000E+00  0.00000000E+00
