Na1 Hf1 Zr1 F9                          
   1.00000000000000     
     5.8291533428736733   -0.0012355996393011    0.0142050316969395
     0.0486420033075684    5.8767632890925547    0.1892143698145910
    -0.0060852366685519    0.0001984045634674    6.0363673553420734
   Na   Hf   Zr   F 
     1     1     1     9
Direct
  0.1865399727550347  0.7285969504366726  0.3671239706973569
  0.6869204184322514  0.5422290386321441  0.8168651566897778
  0.6849477246651270  0.0075921553774584  0.1008415014735883
  0.4547068837662359  0.5455049496176508  0.5867489144958985
  0.4748660767762864  0.7040233996381712  0.0614821268566142
  0.9199316475391853  0.0338800422728959  0.3272075974704791
  0.9232580964096112  0.5463789939407003  0.5898629767621744
  0.8983014284171199  0.7022549577256679  0.0607774654954369
  0.4496643189415830  0.0346940940088159  0.3276504708542859
  0.4828366732559245  0.2754841348208286  0.9516513954762208
  0.6841405774473249  0.8996399858228562  0.7640045878771593
  0.8888975356830986  0.2705256456608282  0.9487636828947608
 
  0.00000000E+00  0.00000000E+00  0.00000000E+00
  0.00000000E+00  0.00000000E+00  0.00000000E+00
  0.00000000E+00  0.00000000E+00  0.00000000E+00
  0.00000000E+00  0.00000000E+00  0.00000000E+00
  0.00000000E+00  0.00000000E+00  0.00000000E+00
  0.00000000E+00  0.00000000E+00  0.00000000E+00
  0.00000000E+00  0.00000000E+00  0.00000000E+00
  0.00000000E+00  0.00000000E+00  0.00000000E+00
  0.00000000E+00  0.00000000E+00  0.00000000E+00
  0.00000000E+00  0.00000000E+00  0.00000000E+00
  0.00000000E+00  0.00000000E+00  0.00000000E+00
  0.00000000E+00  0.00000000E+00  0.00000000E+00
