F  H  P 
 1.0000000000000000
     5.2805720359510300    0.0000000000000000    0.0000000000000000
    -0.0459650440942139    5.9582896962100724    0.0000000000000000
     0.8983795946135464    0.9103426052605665    6.6938472359858512
 F   H   P  
  10   5   1
Cartesian
  5.1040231237098306  5.6374906066205135  2.6397010504896299
  1.2526169300457213  2.6833695667352910  2.8375207012814934
  4.3482763261536910  2.7918361401682619  0.8020859929955987
  1.2768100004236138  4.4280638771741643  1.3798094001448524
  4.7481231504266983  3.7025961003762902  3.7306069534453505
  5.2490767791443700  6.4497659484853420  5.8721943504447056
  1.8637428128925837  3.0256676217350509  6.0398946698859719
  2.8027825748458923  1.2001375185011873  1.7251095398836311
  1.6756161491436137  4.7934681563143826  3.7661835932369816
  3.1119988065866471  1.1359525249014746  5.0913432042231763
  1.0464718162282036  3.2380561891721258  6.6101917806459189
  4.3365096609338902  6.7122357436763167  5.5789384323273614
  2.5604463625617315  1.8620656149162782  5.5057351709653295
  2.1250921573740342  1.7766260931123283  2.2429475850060934
  3.7298593497466257  2.0595811580822407  1.1450043954380811
  0.6064176722574239  4.2892193285253519  2.8051604741230967
