Al F  Tm
 1.0000000000000000
     5.5254649090228769    0.0000000000000000    0.0000000000000000
     1.6172458954195936    5.2835262166990358    0.0000000000000000
     0.4206524421826310    0.3054082549234433    5.8814248029523570
 Al  F   Tm 
   2   9   1
Cartesian
  2.1759486451101147  0.8354192891383739  2.0577065551237133
  3.5229123183788666  1.8394946549860669  5.3106254489962312
  2.4491442906780128  5.1155089929299198  2.7386629779265963
  2.8570989568532732  1.3383819963149439  3.6861237056987695
  4.8757704305996716  2.8414986547483285  4.6452656263799197
  4.5459203872009093  0.3197089740699366  5.1089958213294420
  1.7377618617477111  0.5425969954685912  0.3036103829356135
  3.5413957686092274  1.8369935266705339  1.1818993755805938
  1.1615774594366002  2.3588208528175509  2.2597714033236858
  4.9468720842449150  4.6960401779982535  2.2517996635535633
  2.3745719530952774  3.2653788688977170  5.1175487899711065
  6.4239764656704335  3.9807111056717024  3.6881190945629534
