Li1 Tb2 F7                              
   1.00000000000000     
     4.2471306965362148    0.0095564889888034    1.1846758181631849
     0.4775936771549044    4.3515170701117531    1.0466783832743134
     0.0389336158154106    0.0550825339554177    7.0363851060680860
   Li   Tb   F 
     1     2     7
Direct
  0.2784182711486347  0.2914930924496663  0.7300869876053918
  0.6984708346110272  0.6294729966514756  0.0172904886128641
  0.8575479848972255  0.9501977150722227  0.4419104278822679
  0.6382231041103210  0.0381430823936749  0.7689727853961899
  0.2536945249468168  0.5245059676574259  0.9422131661487437
  0.3018449969757614  0.0547370605953236  0.5168427266571877
  0.7791222714543193  0.0974542990172409  0.1092390253982079
  0.2775658921713745  0.7888942368666531  0.2294342879353197
  0.9163800712220327  0.5414161249143442  0.6904348828492003
  0.7757012130723960  0.4821975493972320  0.3501286023019998
 
  0.00000000E+00  0.00000000E+00  0.00000000E+00
  0.00000000E+00  0.00000000E+00  0.00000000E+00
  0.00000000E+00  0.00000000E+00  0.00000000E+00
  0.00000000E+00  0.00000000E+00  0.00000000E+00
  0.00000000E+00  0.00000000E+00  0.00000000E+00
  0.00000000E+00  0.00000000E+00  0.00000000E+00
  0.00000000E+00  0.00000000E+00  0.00000000E+00
  0.00000000E+00  0.00000000E+00  0.00000000E+00
  0.00000000E+00  0.00000000E+00  0.00000000E+00
  0.00000000E+00  0.00000000E+00  0.00000000E+00
