B  F  Li Rb
 1.0000000000000000
     5.2405385325978369    0.0000000000000000    0.0000000000000000
    -2.0195693941974233    6.8647203062771638    0.0000000000000000
     0.1369085811687545    1.3856161425648881    8.5912065231623487
 B   F   Li  Rb 
   3  13   2   2
Cartesian
  2.8792655297152545  0.8374816965713713  1.1805855381061994
  0.7200596292609530  4.2823112444961557  7.4932319996460590
  3.4578060127725041  4.3038259207008371  3.1156013618828480
 -0.7332754044748331  3.3696605340045442  3.3047411720986024
  2.1994764765425585  3.6686783930802780  3.3554389819272670
  0.6645969027158107  3.4472024903470850  0.2229669143304752
  0.7178935633977886  2.8944900337558908  7.5364634880832035
  3.1584702143350869  1.8171955697143916  0.1726872944149752
  1.7936253539628471  1.3015367860668927  1.9733216549684967
 -0.4531632637779542  4.7367323473601246  6.8316720394601225
  3.4864451564557850  4.7535853314595391  1.7976349724930585
  0.4795181893697052  6.4740171759557210  0.5936688848882422
  3.4864397362313952  1.5544284967690776  6.2315299402102058
  1.8500069058500221  4.6983725302413140  6.7102542555142950
  3.6152639724517450  5.3488055409638271  4.0556522167441749
  4.0292674287415036  0.6433562286680250  1.9676486230741190
  3.3572261413864268  3.1653788905447544  6.8102216957291519
  0.7598189217475001  2.9934407764279309  2.1330946854221273
  1.0203266558150772  6.6164578561989869  4.5022227796738594
  3.2517440170806400  7.1009257156731698  7.8157660229222063
