Mg1 W1 O1 F5                            
   1.00000000000000     
     4.8509476831153826    0.0269476370266151    2.7855172695666828
     1.6558483019283967    4.5598417818500883    2.7048919186024509
     0.0312505079440577    0.0250983907431506    5.5756857344603619
   Mg   W    O    F 
     1     1     1     5
Direct
  0.4382784224626384  0.8407311263613352  0.1996668444732678
  0.9513345948696394  0.3250897605747653  0.6841900309172594
  0.1522207984082558  0.1047883185608596  0.4617201605822351
  0.7163430186683136  0.5845178720709011  0.9475070589068143
  0.6869095191221838  0.6326876693555920  0.4549715409793619
  0.1701852471807686  0.0668329987674312  0.9643180612085797
  0.2107176007293071  0.5645671598277677  0.4697955458746290
  0.6460818501564886  0.1367056834515318  0.9503928728463125
 
  0.00000000E+00  0.00000000E+00  0.00000000E+00
  0.00000000E+00  0.00000000E+00  0.00000000E+00
  0.00000000E+00  0.00000000E+00  0.00000000E+00
  0.00000000E+00  0.00000000E+00  0.00000000E+00
  0.00000000E+00  0.00000000E+00  0.00000000E+00
  0.00000000E+00  0.00000000E+00  0.00000000E+00
  0.00000000E+00  0.00000000E+00  0.00000000E+00
  0.00000000E+00  0.00000000E+00  0.00000000E+00
