Li3 Sb1 F6                              
   1.00000000000000     
     5.5128493812025230    0.0018287644879253   -0.6170568776687007
    -3.2793505690740798    4.4658812642637713   -0.6320335456192060
     0.1232200619645225    0.2169159653028711    5.0986727684726985
   Li   Sb   F 
     3     1     6
Direct
  0.5710785553115054  0.5421623500388708  0.9626139655516522
  0.1132592421892223  0.0030044210491083  0.4624635055251340
  0.3893521402527105  0.7259023313633279  0.4659299751507672
  0.8876097016751452  0.2243820464410963  0.9664438522142240
  0.2171913038839614  0.4198068231140671  0.7074514052095110
  0.8179960852838122  0.8450600127318078  0.7431688458661386
  0.6931828770897592  0.8935066977998558  0.2229582400640090
  0.4651661785444919  0.0775284055840980  0.6717670455607140
  0.2703288901946918  0.2958983749732088  0.1857408312117951
  0.0393010693226618  0.6501558509741283  0.2566949962046102
 
  0.00000000E+00  0.00000000E+00  0.00000000E+00
  0.00000000E+00  0.00000000E+00  0.00000000E+00
  0.00000000E+00  0.00000000E+00  0.00000000E+00
  0.00000000E+00  0.00000000E+00  0.00000000E+00
  0.00000000E+00  0.00000000E+00  0.00000000E+00
  0.00000000E+00  0.00000000E+00  0.00000000E+00
  0.00000000E+00  0.00000000E+00  0.00000000E+00
  0.00000000E+00  0.00000000E+00  0.00000000E+00
  0.00000000E+00  0.00000000E+00  0.00000000E+00
  0.00000000E+00  0.00000000E+00  0.00000000E+00
