Na1 H1 F2
1.0
   3.4713826179504395    0.0000000000000000   -0.0095739271491762
  -1.7371064355972967    2.7413870188098994   -1.1778241395950311
   0.0000000000000000    0.0000000000000000    5.0214900970458984
Na H F
1 1 2
direct
   0.4559822380542754    0.8250143527984618    0.7778856158256530 Na
   0.9553324580192566    0.8250460028648375    0.2780466079711914 H
   0.0370384603738785    0.9894998073577881    0.5260862708091736 F
   0.8754217028617859    0.6611725687980651    0.0300342403352260 F
