Na1 Ca2 Sm1 F8                          
   1.00000000000000     
     3.6841959933749533   -0.0015261230200947   -0.0000037610026623
     0.0028549542446545    6.0724848657728927   -0.4795736992495378
    -0.0019307937172613   -0.0755495966119941    7.1161618327787330
   Na   Ca   Sm   F 
     1     2     1     8
Direct
  0.8241389319477361  0.0508690515144603  0.7508173268301400
  0.3235337236751574  0.5527867614636416  0.5739356231923777
  0.8231080989859842  0.5384689905488249  0.0312875364964844
  0.3229846283750882  0.0544325881838888  0.2710743867632282
  0.8230902091347274  0.2580734059313542  0.4704720324871627
  0.8230273266280731  0.6624068661246425  0.7298623266554178
  0.8226779806842374  0.8083701016055149  0.2986518281163974
  0.3227813837345554  0.9334429907873469  0.5658241604594269
  0.3220016554365193  0.3570745782829739  0.8382788363073813
  0.3228428388216574  0.7936117806263885  0.0209743196443065
  0.8224812404818245  0.1511131771254655  0.0806769726392653
  0.3234405986849394  0.4406913129919603  0.2495138928530466
 
  0.00000000E+00  0.00000000E+00  0.00000000E+00
  0.00000000E+00  0.00000000E+00  0.00000000E+00
  0.00000000E+00  0.00000000E+00  0.00000000E+00
  0.00000000E+00  0.00000000E+00  0.00000000E+00
  0.00000000E+00  0.00000000E+00  0.00000000E+00
  0.00000000E+00  0.00000000E+00  0.00000000E+00
  0.00000000E+00  0.00000000E+00  0.00000000E+00
  0.00000000E+00  0.00000000E+00  0.00000000E+00
  0.00000000E+00  0.00000000E+00  0.00000000E+00
  0.00000000E+00  0.00000000E+00  0.00000000E+00
  0.00000000E+00  0.00000000E+00  0.00000000E+00
  0.00000000E+00  0.00000000E+00  0.00000000E+00
