Na1 Sr1 Cr1 F5
1.0
   3.6477787494659424    0.0000000000000000   -0.0904707983136172
   0.2386278194903561    5.5414652759930751   -2.6492643356323229
   0.0000000000000000    0.0000000000000000    5.6114954948425293
Na Sr Cr F
1 1 1 5
direct
   0.5420946478843689    0.5718038082122803    0.2126014232635498 Na
   0.1022626087069511    0.2002011835575104    0.5562837719917297 Sr
   0.7916491627693176    0.8484540581703186    0.8639475703239441 Cr
   0.0440161935985088    0.5877808928489685    0.9510399103164673 F
   0.0802256762981415    0.7982491254806517    0.5463426709175109 F
   0.5907058119773865    0.4369782805442810    0.5165700316429138 F
   0.6054962277412415    0.1605997383594513    0.8511564731597900 F
   0.5658458471298218    0.9550445079803467    0.2179343253374100 F
