Li3 Fe1 F6
1.0
   4.4156770706176758    0.0000000000000000   -2.3381335735321045
  -2.8489277652255396    4.0949697581551847   -0.0255709122866391
   0.0000000000000000    0.0000000000000000    5.3743362426757812
Li Fe F
3 1 6
direct
   0.1600799709558487    0.4955138564109802    0.8630728721618652 Li
   0.5749542713165282    0.7006715536117553    0.4875789284706116 Li
   0.1532658189535142    0.9912051558494568    0.3547801077365875 Li
   0.5554297566413879    0.1911488324403763    0.9586574435234070 Fe
   0.6758463978767395    0.5793457627296448    0.1753538697957992 F
   0.3849928379058838    0.9242389798164368    0.1739598810672759 F
   0.3798075914382934    0.8013577461242675    0.6897372603416443 F
   0.0736212134361267    0.0995050519704819    0.6903923749923706 F
   0.0378738194704056    0.2877513468265533    0.1737432032823562 F
   0.6750816106796265    0.4039327502250671    0.6885486841201782 F
