Li2 Ni1 F4
1.0
   2.8332881927490234    0.0000000000000000    0.8819052577018737
  -2.5078947055170189    4.9873214594947202   -1.9920132160186776
   0.0000000000000000    0.0000000000000000    5.0791072845458984
Li Ni F
2 1 4
direct
   0.1077623963356018    0.3288817405700684    0.9246306419372559 Li
   0.6323320269584656    0.0903021767735481    0.3916190862655640 Li
   0.1103088557720184    0.8034638166427611    0.8673626780509949 Ni
   0.8215676546096802    0.4205015003681182    0.6823917031288147 F
   0.3962119817733765    0.7120566964149475    0.1135491430759430 F
   0.8641506433486938    0.9472407102584839    0.6483863592147827 F
   0.3434297144412994    0.1682855933904648    0.1334212422370911 F
