Li2 Mn1 F4
1.0
   3.0629403591156006    0.0000000000000000   -0.7579083442687983
  -0.8390431685966603    4.1425401939749751   -3.3594045639038113
   0.0000000000000000    0.0000000000000000    6.5043287277221680
Li Mn F
2 1 4
direct
   0.4233262836933136    0.1704548597335815    0.6277474164962769 Li
   0.6513208746910095    0.8640648722648621    0.0882450044155121 Li
   0.1878371387720108    0.4083036780357361    0.1651667207479477 Mn
   0.0383887328207493    0.4799771010875702    0.8654912114143372 F
   0.5576788187026978    0.0713975131511688    0.9029220342636108 F
   0.2644669115543365    0.1618472337722778    0.3164656460285187 F
   0.7875519990921021    0.7647976875305176    0.3628441095352173 F
