Cs1 P1 F6
1.0
   5.0270986557006836    0.0000000000000000   -2.4019460678100590
  -1.0627496576000781    4.8201233730321871   -2.2960963249206534
   0.0000000000000000    0.0000000000000000    6.1964874267578125
Cs P F
1 1 6
direct
   0.8076596260070801    0.3801122009754181    0.3945594131946563 Cs
   0.4382961094379425    0.0101517578586936    0.6642147302627563 P
   0.3155081868171692    0.8754794597625732    0.8028687238693236 F
   0.3133627772331238    0.2781766653060913    0.8028669357299804 F
   0.5108496546745300    0.8828256130218506    0.4065457582473754 F
   0.6941084861755371    0.2790551185607910    0.7999659180641173 F
   0.6965970993041992    0.8776852488517761    0.8033785820007323 F
   0.1171316057443619    0.8832934498786926    0.4080073833465576 F
