Y1 Sb1 F6
1.0
   5.4073605537414542    0.0000000000000000    3.1207189559936537
   1.8057849634084688    5.0995426496342748    3.1304306983947749
   0.0000000000000000    0.0000000000000000    6.2487673759460449
Y Sb F
1 1 6
direct
   0.6550356149673461    0.8108733296394348    0.0562150925397874 Y
   0.1539259552955627    0.3115904629230499    0.5551614761352539 Sb
   0.9057790637016295    0.5596336722373962    0.8047226071357729 F
   0.4033431708812714    0.5599034428596497    0.3073667287826539 F
   0.9057976007461547    0.0623351708054542    0.8046909570693970 F
   0.9048749804496764    0.5603314638137817    0.3067969679832460 F
   0.4030712544918060    0.0621027722954750    0.8044257760047913 F
   0.4036028087139130    0.0615124851465225    0.3067041933536530 F
