Cs3 Hf1 F6
1.0
   7.1421384811401367    0.0000000000000000   -1.4432140588760369
   0.9309394137553887    6.7075048377026425   -1.6880458593368532
   0.0000000000000000    0.0000000000000000    7.6588020324707031
Cs Hf F
3 1 6
direct
   0.9687987565994263    0.0354720652103424    0.6554256081581116 Cs
   0.4688486754894257    0.0363922566175461    0.1550429910421371 Cs
   0.9679440259933472    0.5355614423751831    0.6535191535949707 Cs
   0.4694605767726898    0.0369251370429993    0.6563025712966919 Hf
   0.6133348345756531    0.8296831250190735    0.4728579223155975 F
   0.2473626583814621    0.1095886975526810    0.4604142606258392 F
   0.3259088397026062    0.8239583373069763    0.7058184742927551 F
   0.6905034780502319    0.9626882672309875    0.8504732251167297 F
   0.6120326519012451    0.2477526813745499    0.6053242683410645 F
   0.3245487511157990    0.2433303445577621    0.8380557894706726 F
