F  K  Rb Tl
 1.0000000000000000
     3.9666440941272838    0.0000000000000000    0.0000000000000000
     0.0091348606852686    5.6304744501833790    0.0000000000000000
     1.9922453193723599    2.8032648491231487   10.0576734011353359
 F   K   Rb  Tl 
   5   1   3   1
Cartesian
  1.8947358019873863  2.7984929418092728  7.6419660945807433
  1.8963412404781750  2.6968942436616548  3.5306879915268965
  3.8821125919127253  5.5094238109610769  5.7150307234346878
  3.8824402047906998  5.5130252025912911  1.6475468785814562
  3.8843275920146461  5.5009489392626945  9.8277538827918853
  3.8770592343482009  2.6989694189773048  1.6337364146427247
  1.8977750364024490  5.5144455693134171  3.6132618238470195
  3.8902802545779562  8.3157307546650934  9.7046887995175162
  3.8782983137708631  2.6899250798914713  5.6336453682443670
  1.9022871522847578  5.4737198019023587  7.6958231421793792
