Li2 Ni2 F6
1.0
   4.9839067459106445    0.0000000000000000   -0.9439011216163630
  -2.5433377556851151    4.2789055100564664   -0.9549134373664849
   0.0000000000000000    0.0000000000000000    5.1302919387817383
Li Ni F
2 2 6
direct
   0.5557126998901367    0.3263647556304932    0.2821999192237854 Li
   0.9102070331573486    0.9697552323341369    0.2816966176033020 Li
   0.7393103837966919    0.1430118829011917    0.7820408940315247 Ni
   0.0883395448327065    0.7932671308517456    0.7830222845077515 Ni
   0.1301538050174713    0.1784787327051163    0.0361982546746731 F
   0.8373354077339172    0.5591545701026917    0.0204350054264069 F
   0.3232621252536774    0.0451459065079689    0.5438578128814697 F
   0.5136038064956665    0.9339759349822998    0.0288989394903183 F
   0.9475689530372620    0.3677199780941010    0.5357873439788818 F
   0.7043126821517944    0.7520136833190918    0.5298089981079102 F
