K1 Dy2 F7                               
   1.00000000000000     
     5.3586635071420670   -0.0003564434857242   -2.5762010120991037
    -4.0298868868694306    4.4713825851494464   -1.5232844131551349
    -0.0041404388658895   -0.0215650693813666    6.8576071538246781
   K    Dy   F 
     1     2     7
Direct
  0.4877948949442680  0.7403863169307197  0.6440070708529780
  0.9215561784168678  0.8868818374334547  0.3645507937603332
  0.0571911081816561  0.5973250945635364  0.9252817342725644
  0.5803933095466151  0.9257441507316259  0.0866049911635904
  0.9893079096019184  0.7419817471861755  0.6446593664714978
  0.4901672403534442  0.2414962118194676  0.6449886030864286
  0.9550202626122891  0.5582563182153989  0.2033243303386733
  0.3983052878927869  0.5589727945116691  0.2037113192047406
  0.9930309980616145  0.2445210179190938  0.6460609717658126
  0.0229651871130214  0.9253473725128939  0.0862539060651541
 
  0.00000000E+00  0.00000000E+00  0.00000000E+00
  0.00000000E+00  0.00000000E+00  0.00000000E+00
  0.00000000E+00  0.00000000E+00  0.00000000E+00
  0.00000000E+00  0.00000000E+00  0.00000000E+00
  0.00000000E+00  0.00000000E+00  0.00000000E+00
  0.00000000E+00  0.00000000E+00  0.00000000E+00
  0.00000000E+00  0.00000000E+00  0.00000000E+00
  0.00000000E+00  0.00000000E+00  0.00000000E+00
  0.00000000E+00  0.00000000E+00  0.00000000E+00
  0.00000000E+00  0.00000000E+00  0.00000000E+00
