F  Ga Gd Na
 1.0000000000000000
     4.9814127774148753    0.0000000000000000    0.0000000000000000
    -0.1032805536805478    5.2627336604970187    0.0000000000000000
     0.0026128323642084    0.0074672327921958    6.8097259344139172
 F   Ga  Gd  Na 
   8   1   1   2
Cartesian
  4.5910982783875731  3.7658577075988591  6.1292495836702052
  2.9392226643308010  0.4470251567785238  6.1271482844342389
  2.1105570961827063  3.2501823898945967  4.2241326287177854
  0.1940197307857366  0.7759375998176626  0.8181259105769750
  0.4361800119515107  0.9561633194536200  4.2210916911331084
  2.3493018434681296  3.4213250030909381  0.8160740793426271
  2.9329621922218139  0.4392823776082778  2.3184941034508553
  4.5893217083860565  3.7612851577000086  2.3229089830702523
  3.7106049147575253  4.7279588486323831  0.8179688813820911
  3.7087071395666920  4.7366212757801502  4.2258909498091910
  1.2714228254081885  2.1023834860289750  6.0425581031379210
  1.2728135842072137  2.1043630856187381  2.4029294372180003
