Cs F  H  Tb
 1.0000000000000000
     4.3580254379331915    0.0000000000000000    0.0000000000000000
    -0.4694161130279338    5.0747763953621066    0.0000000000000000
     0.7223255492100510    2.5214602648862270    8.0095584047306048
 Cs  F   H   Tb 
   1   7   3   1
Cartesian
  2.6745051622337308  4.2604959040342854  6.7447796252368057
  4.1371351303655830  7.4011129637233903  7.7343443167386585
  0.6998040464124355  3.8050429420278249  4.5958972444386337
  0.3989633990574070  6.1908382489973723  5.8576545157666242
  2.9880032357721866  2.0117358682203079  4.1968528815919424
  3.5399073609148424  5.1910700996768018  2.6219479648245794
  0.2519847370351107  3.1549219768878185  1.9613016971040760
  2.0486832919147968  1.0329334930912968  1.8220855532071929
  2.4456522889598702  5.6037039742129231  2.0815513009806867
  4.4336202204256452  6.8836130948055807  6.8735921183279833
  4.1204036896000416  4.0370655088009846  2.2002902701261147
  0.8391986669556605  1.8129673397792541  3.7710832814057049
