K1 Mo1 F6                               
   1.00000000000000     
     5.0232791596903255   -0.0346184391201286   -0.6579548295506893
     0.7206324564376245    4.9925988841803628    0.6111099872417464
     0.0050494964352396   -0.0332528099655981    5.0649782132169232
   K    Mo   F 
     1     1     6
Direct
  0.9784040985627300  0.9271257635585715  0.0678486202193075
  0.4773528735384952  0.4248265292050688  0.5696286519700965
  0.5581019158055286  0.7292690449197357  0.3547052138988525
  0.2609476072418467  0.3403696263073418  0.2629855776684572
  0.7828923340827560  0.2098725146217591  0.4884213386606574
  0.6947268983939870  0.5109630073834769  0.8752557346053236
  0.1720095241483370  0.6385999364665005  0.6520531060605063
  0.3950791122304547  0.1204089751029110  0.7840822658999349
 
  0.00000000E+00  0.00000000E+00  0.00000000E+00
  0.00000000E+00  0.00000000E+00  0.00000000E+00
  0.00000000E+00  0.00000000E+00  0.00000000E+00
  0.00000000E+00  0.00000000E+00  0.00000000E+00
  0.00000000E+00  0.00000000E+00  0.00000000E+00
  0.00000000E+00  0.00000000E+00  0.00000000E+00
  0.00000000E+00  0.00000000E+00  0.00000000E+00
  0.00000000E+00  0.00000000E+00  0.00000000E+00
