F  Li Tl
 1.0000000000000000
     5.3009617247650347    0.0000000000000000    0.0000000000000000
     2.6455705791767135    4.5866729526700603    0.0000000000000000
     2.6583467320900085    1.5313289020823291    4.7850279615124434
 F   Li  Tl 
   6   3   1
Cartesian
  7.2135664314724144  3.0983333797264354  4.6816795902984296
  4.7548478121731312  1.5982978802447134  4.6805470218177492
  8.3554223177357247  4.5957612127369973  2.3274827028874512
  5.3480097965665969  3.0511956714175548  2.3257758642894579
  4.6272588850765439  4.7989339191852425  4.6860672592752080
  2.8733863526414529  1.8343041390826400  2.3315192784873178
  3.7571084436488436  3.1598418872360270  0.7697661681693287
  3.7629759321067442  3.1600787710332163  3.8148628418403008
  6.4082619399398064  1.6361000920615441  3.2069428058528984
  6.4056900436274082  4.6912268890624951  1.3921649556208104
