F  Na Sr
 1.0000000000000000
     5.9138461754499936    0.0000000000000000    0.0000000000000000
     0.4380540936407635    5.8892672990217161    0.0000000000000000
    -3.2542194595931568   -2.8447632571648946    5.7789144998072492
 F   Na  Sr 
   7   1   3
Cartesian
  2.5138363571677855  1.8556120322845648  4.5928899792720008
  0.2662691773179626  4.9911192114407781  1.6232643690499149
  2.2737637487117390 -1.0981057112074182  4.6107783087015370
 -0.6192629679495412  2.0253549885130502  1.9636958151455011
  2.2641477467932138  1.3620578980342641  1.6272947802076567
 -0.6937962846832558 -1.1167202307601776  4.5763925395318035
 -0.3642030408310776  1.7403490553907388  5.2243945433493550
 -1.6796304066252037  3.1466764312407154  3.7441779087607738
  1.0695605570230515  3.0876567140486753  0.3143373023672555
  4.0689201791724470  0.4033744036985950  0.3183937195110164
  0.7886022105942234  0.4920381598177235  3.3736174083990846
