Ca F  Pb
 1.0000000000000000
     3.8350256792304398    0.0000000000000000    0.0000000000000000
     0.0023854589761558    6.3756025032466459    0.0000000000000000
    -0.0094209879129836    0.0221201835009855    7.5427921487837040
 Ca  F   Pb 
   1   8   3
Cartesian
  0.3709265435255558  1.5900075646027012  5.7935176682734264
  0.3788953530327190  2.1383241338464045  3.4830897406450170
  0.3721277948690421  5.5826145130705553  6.0060929070823370
  2.2922848733526306  0.1196426420345297  4.0247824321197667
  0.3833290899144516  2.9737773912561551  0.1543737333274020
  2.2992242633150179  4.0093125295518854  2.2709869203580491
  0.3808351158420137  6.1506212645770031  1.5688874241501252
  2.2951526848410380  3.2207588409667394  5.3676703332133124
  2.2896156301588273  0.9523927494328609  6.9806592797700606
  2.2900289337963224  4.7338089970431234  7.3343751257707952
  0.3772787489600840  4.7408764407077006  3.6439797373369700
  2.2949648544022594  1.5135000047978950  1.9882172313866202
