Li3 Fe1 F6
1.0
   5.0183010101318359    0.0000000000000000   -0.8931933045387270
  -2.6469219337277536    4.2684084750568649   -0.9003037810325626
   0.0000000000000000    0.0000000000000000    5.0723028182983398
Li Fe F
3 1 6
direct
   0.7463980317115784    0.5236843824386597    0.8462946414947510 Li
   0.4270715415477753    0.8416767120361328    0.8445639014244080 Li
   0.1106902956962585    0.1595303416252136    0.8463526964187622 Li
   0.9278846979141235    0.3429442644119263    0.3462305068969727 Fe
   0.3183984160423279    0.4272523522377014    0.6150679588317871 F
   0.7118415832519531    0.1254302561283112    0.5895461440086365 F
   0.0139912869781256    0.7322944998741150    0.6141902804374695 F
   0.1431825160980225    0.5560653805732727    0.1015852615237236 F
   0.8419443964958191    0.9510718584060669    0.0762380734086037 F
   0.5374193787574768    0.2563635110855103    0.0782741382718086 F
