Cs2 H5 F7                               
   1.00000000000000     
     5.5005817401390509    0.0095456023636861   -1.5491182664034093
    -0.9264292724254486    6.9768350605826805   -0.5839276841973896
    -0.0670939852428314   -0.1000998087838714    6.2334483002065060
   Cs   H    F 
     2     5     7
Direct
  0.8908560839750815  0.1538868097347347  0.1390503396815644
  0.6496108346913811  0.6292225187303275  0.5852039738105164
  0.3345875554339968  0.7811410151153715  0.0421226013655016
  0.1530603775350738  0.3000494626784561  0.7538512662283395
  0.4283710583311995  0.1530014933491472  0.7190580945274314
  0.4624678246236052  0.1216404747265459  0.4275558836709163
  0.0633159619351384  0.6718047182036710  0.1846479307083043
  0.4546081309048490  0.2089570685686079  0.3077651282426981
  0.4046649972988845  0.2905685756668611  0.8173476104195808
  0.9690458389864358  0.2936932625880787  0.7008385178598228
  0.0938050252457742  0.7745787307690376  0.0272325407187732
  0.4575857518696653  0.0222075851983142  0.6064756787359110
  0.0475129164325612  0.5898165081509107  0.3108362556332039
  0.5193226685725830  0.7822381564640217  0.0626174289829318
 
  0.00000000E+00  0.00000000E+00  0.00000000E+00
  0.00000000E+00  0.00000000E+00  0.00000000E+00
  0.00000000E+00  0.00000000E+00  0.00000000E+00
  0.00000000E+00  0.00000000E+00  0.00000000E+00
  0.00000000E+00  0.00000000E+00  0.00000000E+00
  0.00000000E+00  0.00000000E+00  0.00000000E+00
  0.00000000E+00  0.00000000E+00  0.00000000E+00
  0.00000000E+00  0.00000000E+00  0.00000000E+00
  0.00000000E+00  0.00000000E+00  0.00000000E+00
  0.00000000E+00  0.00000000E+00  0.00000000E+00
  0.00000000E+00  0.00000000E+00  0.00000000E+00
  0.00000000E+00  0.00000000E+00  0.00000000E+00
  0.00000000E+00  0.00000000E+00  0.00000000E+00
  0.00000000E+00  0.00000000E+00  0.00000000E+00
