F  H  Rb Sc
 1.0000000000000000
     4.1191929096296613    0.0000000000000000    0.0000000000000000
     1.1485826719452317    7.7787355363632233    0.0000000000000000
    -0.2189744111018097   -0.4986034067709839    6.4439739315062292
 F   H   Rb  Sc 
   7   2   2   1
Cartesian
  3.1080854608788000 -0.1065422589708532  3.4652547003557319
  2.4995064362700665  4.6612331052257208  0.2578808283036053
  4.3936693836898320  6.9551991788951399  1.2290901027230026
  2.4857852773500309  2.0693096468967922  3.1655603817304367
  4.4512979490570181  3.0508406862655377  4.9427140313831837
  2.4588550434191783  1.3309017390005371  6.0533566838919430
  2.3889270344186944  4.7563844555031798  3.9473562256297861
  4.3505926850624013  7.2559851829182787  2.2202403860583368
  2.8015640892214160  0.9804207622634543  3.2878677522094417
  1.9495047098397140  6.9447717278136576  5.7080755911561125
  4.5069673987027228  4.1621681507593618  2.0460415834076087
  2.3956953307424791  3.0744728265342727  5.0899283444413035
