F  Mg Pb Tl
 1.0000000000000000
     6.1905343073545218    0.0000000000000000    0.0000000000000000
    -0.0040533525612239    4.0289875921752918    0.0000000000000000
     3.0728174215543365    1.9761426730232521    5.4365762501934114
 F   Mg  Pb  Tl 
   5   1   1   1
Cartesian
  3.3460631684606037  3.2052532802908940  2.8191160840711076
  6.1916779329784131  1.2200311247977698  0.3714932710049026
  3.0881793383037737  1.2266234586147919  0.3743251019743821
  5.9171855249875644  3.2014916467152239  2.8162878175987864
  4.6197879986442407  5.2221006426643264  4.5219450740570721
  4.6227536945361400  3.2007853607486902  4.4123118349666779
  4.6331522264328369  3.2242788374489524  0.8126688159413851
  1.5395823776584643  1.1921626439957216  2.6879902232984079
