K2 Na1 Yb1 F6                           
   1.00000000000000     
     5.4259700793824539   -0.0091487220624717   -3.0835343860007103
    -1.7388800970356577    5.1416740623692041   -3.0844539061744860
    -0.0306587779266393   -0.0419478403659520    6.2329624483354911
   K    Na   Yb   F 
     2     1     1     6
Direct
  0.1528826920940216  0.2414025088985943  0.9223871068084475
  0.6529358715713350  0.7411001119663950  0.9223171187130537
  0.9025241221088685  0.4910953076795437  0.4220346679824310
  0.4026332456880040  0.9911412061838286  0.4221902498915737
  0.6491070969707224  0.7437855010949219  0.4216084508376995
  0.6492656113565792  0.2378932464364886  0.4215465618168935
  0.1554911733579982  0.2380323982761324  0.4213944771328749
  0.1568744121900173  0.7456306199462497  0.9299390795826659
  0.6486633339195164  0.2369735951373486  0.9146244469979086
  0.1553111783737818  0.7446135367882579  0.4223456864679120
 
  0.00000000E+00  0.00000000E+00  0.00000000E+00
  0.00000000E+00  0.00000000E+00  0.00000000E+00
  0.00000000E+00  0.00000000E+00  0.00000000E+00
  0.00000000E+00  0.00000000E+00  0.00000000E+00
  0.00000000E+00  0.00000000E+00  0.00000000E+00
  0.00000000E+00  0.00000000E+00  0.00000000E+00
  0.00000000E+00  0.00000000E+00  0.00000000E+00
  0.00000000E+00  0.00000000E+00  0.00000000E+00
  0.00000000E+00  0.00000000E+00  0.00000000E+00
  0.00000000E+00  0.00000000E+00  0.00000000E+00
