Cs3 Pr1 F7                              
   1.00000000000000     
     4.4513547988335018   -0.0429862917712771   -1.8525562199308987
     0.0121984308077388    7.0293433431545918    3.6505476582472207
     0.0897099369722630    0.3245040653702355    8.4149647903143929
   Cs   Pr   F 
     3     1     7
Direct
  0.6079814183769194  0.4379176347245929  0.7873434153090575
  0.1103796183402142  0.9376298585622030  0.2860760621669196
  0.6093060754532984  0.4391465355798967  0.2868042254373510
  0.1090952233231292  0.9386472096415541  0.7851090427426465
  0.2191246678717366  0.2552220996819229  0.5457607278974395
 -0.0013450725478202  0.6231367120812609  0.0261761023872765
  0.7534219468716866  0.0238925722278339  0.4624548060880130
  0.1292338889905815  0.6962623298522708  0.6947650614518743
  0.4680014947866593  0.8569561111742100  0.1075910310806347
  0.6082326402327281  0.9385046530275084  0.7836940106830484
  0.0847676917629166  0.1803218897471592  0.8751542153220319
 
  0.00000000E+00  0.00000000E+00  0.00000000E+00
  0.00000000E+00  0.00000000E+00  0.00000000E+00
  0.00000000E+00  0.00000000E+00  0.00000000E+00
  0.00000000E+00  0.00000000E+00  0.00000000E+00
  0.00000000E+00  0.00000000E+00  0.00000000E+00
  0.00000000E+00  0.00000000E+00  0.00000000E+00
  0.00000000E+00  0.00000000E+00  0.00000000E+00
  0.00000000E+00  0.00000000E+00  0.00000000E+00
  0.00000000E+00  0.00000000E+00  0.00000000E+00
  0.00000000E+00  0.00000000E+00  0.00000000E+00
  0.00000000E+00  0.00000000E+00  0.00000000E+00
