Pr4 F12
1.0
   5.2639851570129386    0.0000000000000000    1.5668191909790044
   2.1276294186156979    6.1952450738010585    1.2482734918594367
   0.0000000000000000    0.0000000000000000    7.5826320648193359
Pr F
4 12
direct
   0.9056538343429565    0.8057923316955565    0.8814280033111572 Pr
   0.7821640372276306    0.4062510728836060    0.5975442528724670 Pr
   0.5507767796516418    0.3597168028354645    0.1405806243419647 Pr
   0.1404471397399902    0.8520590066909790    0.3390540480613708 Pr
   0.7668485641479492    0.1893806755542755    0.3870889842510223 F
   0.8092331886291504    0.7660344839096069    0.6008808016777039 F
   0.3422073125839233    0.6071669459342957    0.7368063926696777 F
   0.0834015160799026    0.0255117267370224    0.6198086142539978 F
   0.6065354943275452    0.1863235980272293    0.8598607778549194 F
   0.1063296347856522    0.5904489159584045    0.1218203380703926 F
   0.8804091215133667    0.4456370472908020    0.8779134750366211 F
   0.2001502811908722    0.4540263712406158    0.4381970465183258 F
   0.5871691107749939    0.6184787750244141    0.3551097214221954 F
   0.3448037505149841    0.1063309535384178    0.2377841919660568 F
   0.9240011572837830    0.0209271404892206    0.0924884229898453 F
   0.4890233874320984    0.7576945424079895    0.0401755198836327 F
