K2 Sb1 F7
1.0
   5.8726539611816406    0.0000000000000000    0.0768394470214853
   0.7765604039289893    5.8353168258175794    0.0651247277855883
   0.0000000000000000    0.0000000000000000    7.0356678962707520
K Sb F
2 1 7
direct
   0.5996193885803223    0.8557281494140625    0.5455101132392883 K
   0.1822201758623123    0.4396646320819855    0.0454351082444191 K
   0.1398883759975433    0.3962088227272034    0.5444925427436829 Sb
   0.2843654453754425    0.1709024906158447    0.7338883280754089 F
   0.3312143087387085    0.5836936831474304    0.3672236204147339 F
   0.9139031767845154    0.5463880300521851    0.3575126528739929 F
   0.2886289060115814    0.1730199903249741    0.3585181236267090 F
   0.9122519493103027    0.5395430922508240    0.7334125041961670 F
   0.3259057104587554    0.5836982131004333    0.7200177311897278 F
   0.9070796370506287    0.1654964089393616    0.5444983839988708 F
