Sr2 Ca1 Mn1 F8
1.0
   5.5627923011779785    0.0000000000000000   -0.0107026165351272
  -0.0119247064697381    5.5715919676725845   -0.0273536797612902
   0.0000000000000000    0.0000000000000000    5.6322312355041504
Sr Ca Mn F
2 1 1 8
direct
   0.4745579063892365    0.5387259721755983    0.3719077110290527 Sr
   0.9740704894065857    0.0381888300180435    0.3729261457920074 Sr
   0.4744830727577209    0.0379373058676720    0.8719243407249451 Ca
   0.9746015071868896    0.5381973981857300    0.8724892139434814 Mn
   0.2181159257888794    0.2953307926654816    0.6392954587936401 F
   0.2191437929868698    0.7839068174362184    0.6390382051467896 F
   0.7292643189430237    0.7822790741920471    0.1052472963929176 F
   0.2184535712003708    0.7828031182289124    0.1047322303056717 F
   0.7304383516311646    0.7832477092742920    0.6383838057518005 F
   0.7286418676376343    0.2935760617256165    0.6393027901649475 F
   0.7302406430244446    0.2932502925395966    0.1050848290324211 F
   0.2180991470813751    0.2929916083812714    0.1051994115114212 F
