Cs1 H1 F2                               
   1.00000000000000     
     4.1726772382452495   -0.0096413971353401   -0.5754916624840203
     0.6411487525095421    4.1770906076106513   -0.6108410828608766
     0.0002510675793539   -0.0011152089258022    4.2931758648481102
   Cs   H    F 
     1     1     2
Direct
  0.2201392187946153  0.3321350106359524  0.6920988099419150
  0.7202219235721268  0.8325426846901917  0.1907866233119835
  0.8555488498026701  0.9694386291990580  0.0522328698488971
  0.5852783259639419  0.6951841088720910  0.3299297164851980
 
  0.00000000E+00  0.00000000E+00  0.00000000E+00
  0.00000000E+00  0.00000000E+00  0.00000000E+00
  0.00000000E+00  0.00000000E+00  0.00000000E+00
  0.00000000E+00  0.00000000E+00  0.00000000E+00
