F  Fe Ge Li
 1.0000000000000000
     4.7237171211878550    0.0000000000000000    0.0000000000000000
    -0.4599523432922864    5.6300531581034461    0.0000000000000000
    -0.0599476873253615   -3.5428196535421099    5.1810977309006550
 F   Fe  Ge  Li 
   8   1   1   2
Cartesian
  4.2519824430283730 -0.1265380019839947  4.9830157077776276
  3.9124742487819919 -0.9324295145851637  2.2683452183319295
  3.9317072092967691  0.5731318709046253  0.0596373088432245
  2.0020606101646607  1.9337106616223505  0.9722629962578293
  1.1406437696734804  3.2096308211819826  3.4374885516556142
  4.0868192987502301  1.6495198129940307  2.3946253221722356
  1.3651130557798044  4.9903412672258334  0.8393627718887471
  1.9836414826836997  0.4240182767178088  3.1748130270967048
  2.9260076731609228 -1.2693408014140508  4.2097682127101095
  2.9604680464870654  0.4953823744661902  1.6194589896318641
  0.3378713922285574  1.5435330340377509  4.2145545749844713
  0.3651055201247080  3.3140475448524627  1.6200806392388252
