Rb2 H1 F3
1.0
   3.5620069503784184    0.0000000000000000   -2.0623874664306641
  -1.0990206703529293    8.2287379386596218    1.8291697502136246
   0.0000000000000000    0.0000000000000000    4.1174597740173340
Rb H F
2 1 3
direct
   0.0265563204884529    0.8843273520469666    0.1539460420608521 Rb
   0.4712771177291871    0.2621846795082092    0.7150182127952576 Rb
   0.2459228932857514    0.5776549577713013    0.9385154247283936 H
   0.7459580302238465    0.0738195553421974    0.4358501136302949 F
   0.3082980513572693    0.7149947881698608    0.8712196946144104 F
   0.1857330501079560    0.4362782239913940    0.0018238043412566 F
