Li2 Ni1 F4
1.0
   2.7908899784088135    0.0000000000000000    0.8333290815353396
  -0.3558812961976089    4.8967638045615738    1.1268055438995368
   0.0000000000000000    0.0000000000000000    5.0265011787414551
Li Ni F
2 1 4
direct
   0.8319828510284424    0.9849615693092346    0.0337560549378395 Li
   0.3646135330200195    0.5477533340454102    0.9668051004409790 Li
   0.6017064452171326    0.2654145956039429    0.4998872578144073 Ni
   0.7431840300559998    0.6097091436386108    0.2137343287467957 F
   0.2208983898162842    0.1514906138181686    0.2557600438594818 F
   0.4565914273262024    0.9203408360481262    0.7867550849914551 F
   0.9774333238601686    0.3803305327892303    0.7450037598609924 F
