K2 Bi3 F11
1.0
   5.7711973190307608    0.0000000000000000   -0.0334516055881972
  -0.0447752273220361    6.0905808675641468   -0.0265805311501033
   0.0000000000000000    0.0000000000000000    8.4936084747314453
K Bi F
2 3 11
direct
   0.1917948722839355    0.6743329167366028    0.5552849769592285 K
   0.6877371072769165    0.6722280979156494    0.0551166012883186 K
   0.6759433746337891    0.1726580411195755    0.3536408245563507 Bi
   0.6737136840820312    0.1725028157234192    0.7562153935432434 Bi
   0.1782166212797165    0.1712190657854080    0.0548327751457691 Bi
   0.9460114240646362    0.3900408446788788    0.2239978015422821 F
   0.4281441271305084    0.3957044482231140    0.2261772602796554 F
   0.4245035350322723    0.3956101834774017    0.8832847476005554 F
   0.9432182908058167    0.3898009359836578    0.8887392282485962 F
   0.4273222684860229    0.9477275609970092    0.2256436347961426 F
   0.7742145061492920    0.4158421158790588    0.5549474954605103 F
   0.7784604430198669    0.9295321702957152    0.5556437373161316 F
   0.4256967306137085    0.9482662677764893    0.8832581639289856 F
   0.3848662972450256    0.1689410507678986    0.5549247264862061 F
   0.9448530673980713    0.9524028301239013    0.8879646062850952 F
   0.9464516043663025    0.9533686637878418    0.2236545681953430 F
