Rb2 Y1 Be2 F9
1.0
   6.9934844970703125    0.0000000000000000    0.2432629168033605
  -2.0315504910282702    4.6198666094676186    1.7943400144577020
   0.0000000000000000    0.0000000000000000    6.9075264930725098
Rb Y Be F
2 1 2 9
direct
   0.7703870534896851    0.6112529635429382    0.5189970731735229 Rb
   0.8857815265655518    0.9772195816040039    0.9208744764328003 Rb
   0.2489888370037079    0.4341997802257538    0.3089595139026642 Y
   0.2907111346721649    0.7759824395179749    0.7215166687965393 Be
   0.4935494065284729    0.1756305396556854    0.1285654604434967 Be
   0.1847495138645172    0.5534381866455078    0.6044644117355347 F
   0.9248614907264709    0.2289017289876938    0.3853991329669952 F
   0.5582495927810669    0.3973253071308136    0.2448311150074005 F
   0.6413565278053284    0.3229047656059265    0.9174587130546570 F
   0.5292104482650757    0.8530859947204590    0.7022180557250977 F
   0.5061755180358887    0.8703162670135498    0.2389078885316849 F
   0.1861979961395264    0.6352537870407104    0.9686210155487061 F
   0.2457443773746490    0.1043773368000984    0.1495997011661530 F
   0.2314587235450745    0.0499795861542225    0.6103783845901489 F
