Li2 Tb1 Hf2 F13
1.0
   5.3770318031311035    0.0000000000000000   -0.0588597655296325
   0.9134616245360553    5.3123191453170628   -0.0636132955551149
   0.0000000000000000    0.0000000000000000    9.3986282348632812
Li Tb Hf F
2 1 2 13
direct
   0.0593152604997158    0.3675330877304077    0.1750711053609848 Li
   0.2255318313837051    0.5315046906471252    0.4384249150753021 Li
   0.6494858860969545    0.9552212357521057    0.6679637432098389 Tb
   0.6438413262367249    0.9511418342590331    0.2838346660137177 Hf
   0.1555395275354385    0.4609117805957794    0.7889403104782104 Hf
   0.3503662645816804    0.2500162124633789    0.2950551211833954 F
   0.4398419260978699    0.1715983152389526    0.8491304516792297 F
   0.1522030681371689    0.4613845050334930    0.0048465128056705 F
   0.4737636148929596    0.7832595705986023    0.4539650678634644 F
   0.9105994105339050    0.2190543264150620    0.7515593767166138 F
   0.3984067738056183    0.7000302672386169    0.7543129920959473 F
   0.8347379565238953    0.1424079537391663    0.1590515971183777 F
   0.9766994714736938    0.6416812539100647    0.5997589826583862 F
   0.4775911569595337    0.7808547616004944    0.1428108066320419 F
   0.7987715005874634    0.1027405709028244    0.4616462886333466 F
   0.8691062927246094    0.7496746778488159    0.8474275469779968 F
   0.9448199868202209    0.6595854759216309    0.2951397597789764 F
   0.3371777236461639    0.2836463153362274    0.6007747650146484 F
