Na1 Li2 Y3 F12
1.0
   5.9948239326477042    0.0000000000000000    0.0523890927433972
   0.5970822571650840    6.5946797674017335    2.8607873916625977
   0.0000000000000000    0.0000000000000000    5.6299943923950195
Na Li Y F
1 2 3 12
direct
   0.5604624748229980    0.7890485525131227    0.3168288767337799 Na
   0.1544458419084549    0.5598748922348022    0.3564506173133850 Li
   0.5279353857040405    0.5141873955726624    0.9189356565475464 Li
   0.0477398969233036    0.2086188495159149    0.0276448968797922 Y
   0.5169319510459900    0.1713760495185852    0.6298705935478212 Y
   0.0177414920181036    0.8252515196800232    0.7090494632720947 Y
   0.1490660011768341    0.2914715111255646    0.6132042407989502 F
   0.8168368935585022    0.1348640322685242    0.3819422721862793 F
   0.8220983147621155    0.0237256698310375    0.9078142046928406 F
   0.7615687251091003    0.4113839864730836    0.7589987516403198 F
   0.3008739650249481    0.6233687400817872    0.6522804498672485 F
   0.9403708577156067    0.7724660038948059    0.3649389445781707 F
   0.2612952291965484    0.9206663370132447    0.9519926905632016 F
   0.0301585495471954    0.5209872126579285    0.0565918385982513 F
   0.4216729700565338    0.2363891005516052    0.9854490756988525 F
   0.4791459143161774    0.4763800203800201    0.2820976972579955 F
   0.2650011777877808    0.0309680663049221    0.4199016392230988 F
   0.6425765156745912    0.8106963038444519    0.7314454913139343 F
