K2 Yb1 F5                               
   1.00000000000000     
     4.1998858527290714   -0.0072315812962082   -1.3477534004392078
    -0.8095798604167017    5.1028484646890737   -2.5308966071923864
    -0.0266840630868693    0.2893952419843215    7.1397103192547746
   K    Yb   F 
     2     1     5
Direct
  0.2598575844005885  0.0229181833586222  0.2357841469170885
  0.9070389610772318  0.6723105718020117  0.5325986911256474
  0.5835818249090616  0.3480827531104416  0.8845992967767007
  0.7220946666577231  0.2338338683365433  0.1574929610624221
  0.4459703149370387  0.4619166116626277  0.6114892657278890
  0.0839735568392190  0.3484774280340314  0.8843493805973349
  0.7213330383682368  0.7346540772362544  0.1584885050150980
  0.4457989683401513  0.9612193299130137  0.6107760996263073
 
  0.00000000E+00  0.00000000E+00  0.00000000E+00
  0.00000000E+00  0.00000000E+00  0.00000000E+00
  0.00000000E+00  0.00000000E+00  0.00000000E+00
  0.00000000E+00  0.00000000E+00  0.00000000E+00
  0.00000000E+00  0.00000000E+00  0.00000000E+00
  0.00000000E+00  0.00000000E+00  0.00000000E+00
  0.00000000E+00  0.00000000E+00  0.00000000E+00
  0.00000000E+00  0.00000000E+00  0.00000000E+00
