Na1 Sr1 Sn1 F5                          
   1.00000000000000     
     3.9142724283324197    0.0026313131616590   -0.0300121676993239
    -1.9829771293064342    6.2464945901341729   -2.8630145371253968
    -0.0075492141758852   -0.0171943423200921    5.8858996876786458
   Na   Sr   Sn   F 
     1     1     1     5
Direct
  0.9776547955095158  0.7902846250654042  0.1485090773944940
  0.3461158116978470  0.5258569245799726  0.5100820433124105
  0.6505476424510346  0.1411257456546259  0.8829676381756120
  0.4988688636551462  0.8389612650056761  0.9313487893278278
  0.8175484913619361  0.4658105066555732  0.7200459566218246
  0.8241677109023007  0.4855649317002929  0.2339271010422317
  0.1573208349144267  0.1574703429134069  0.1169925351377124
  0.5217610375151480  0.8578214660489115  0.4536595098162485
 
  0.00000000E+00  0.00000000E+00  0.00000000E+00
  0.00000000E+00  0.00000000E+00  0.00000000E+00
  0.00000000E+00  0.00000000E+00  0.00000000E+00
  0.00000000E+00  0.00000000E+00  0.00000000E+00
  0.00000000E+00  0.00000000E+00  0.00000000E+00
  0.00000000E+00  0.00000000E+00  0.00000000E+00
  0.00000000E+00  0.00000000E+00  0.00000000E+00
  0.00000000E+00  0.00000000E+00  0.00000000E+00
