Li2 Ni2 F6
1.0
   3.2514655590057377    0.0000000000000000    0.0126602603122597
   0.0104861032432356    5.6680272378425283    0.0639436691999444
   0.0000000000000000    0.0000000000000000    5.7639384269714355
Li Ni F
2 2 6
direct
   0.5163561701774597    0.7858752012252808    0.6806724667549133 Li
   0.0165716074407101    0.2860932052135468    0.7813394069671631 Li
   0.5157421827316284    0.1465861946344376    0.3072269558906555 Ni
   0.0160053782165051    0.6609356999397278    0.1662795245647430 Ni
   0.5163393020629883    0.5313555598258972    0.3628853261470795 F
   0.0154926767572761    0.9232937693595885    0.4163257181644440 F
   0.5154388546943665    0.8738326430320740    0.0578754395246506 F
   0.5166451930999756    0.1646968573331833    0.6618725061416626 F
   0.0159024372696877    0.6193948388099669    0.8035572171211243 F
   0.0153957773000002    0.2812131345272064    0.1173206269741058 F
