Li5 Fe1 F8                              
   1.00000000000000     
     5.9650492441310297    0.2053792221608462    0.2218072331076750
     2.0924828118790946    4.9032150767097731    0.4307275483107121
     0.0959479758777537    0.1535347911474802    5.3160457434386057
   Li   Fe   F 
     5     1     8
Direct
  0.5155569124763136  0.6782192202542774  0.2673939294492284
  0.3377246704199576  0.7444257135224939  0.8051570345697920
  0.2168633061658320  0.2831588671660016  0.0296477909045113
  0.7831313094199139  0.7813770507413582  0.7230085736964853
  0.6931110318086520  0.1428272987919346  0.0882048142878703
  0.9430568511339709  0.2284684300140052  0.5429912406298483
  0.6365666402731989  0.5255918202688548  0.6155420179247664
  0.9081468242375085  0.4206883291408432  0.2182951879334410
  0.7791173578030179  0.0309977090347355  0.4319405194075949
  0.4059729629434197  0.4737805092498811  0.0832093650097251
  0.0795094667130788  0.4333214553689996  0.6936993646726175
  0.5147447900759193  0.9348333360418204  0.9718964359101082
  0.9719810117230655  0.0048444278245639  0.8604920195110518
  0.2517911956605675  0.9608082269619923  0.4602070116287533
 
  0.00000000E+00  0.00000000E+00  0.00000000E+00
  0.00000000E+00  0.00000000E+00  0.00000000E+00
  0.00000000E+00  0.00000000E+00  0.00000000E+00
  0.00000000E+00  0.00000000E+00  0.00000000E+00
  0.00000000E+00  0.00000000E+00  0.00000000E+00
  0.00000000E+00  0.00000000E+00  0.00000000E+00
  0.00000000E+00  0.00000000E+00  0.00000000E+00
  0.00000000E+00  0.00000000E+00  0.00000000E+00
  0.00000000E+00  0.00000000E+00  0.00000000E+00
  0.00000000E+00  0.00000000E+00  0.00000000E+00
  0.00000000E+00  0.00000000E+00  0.00000000E+00
  0.00000000E+00  0.00000000E+00  0.00000000E+00
  0.00000000E+00  0.00000000E+00  0.00000000E+00
  0.00000000E+00  0.00000000E+00  0.00000000E+00
