Rb2 Li2 F4
1.0
   3.4111971855163574    0.0000000000000000   -0.0007329258951365
  -1.7036926185600973    6.3576899575907113   -2.9340994358062740
   0.0000000000000000    0.0000000000000000    5.9537835121154785
Rb Li F
2 2 4
direct
   0.1203642189502716    0.7023427486419678    0.3402741253376006 Rb
   0.8458753824234009    0.1538959890604019    0.0664018392562866 Rb
   0.3839391171932220    0.2316533625125885    0.6039673089981079 Li
   0.5814658403396606    0.6228119730949401    0.8021538853645324 Li
   0.1627431362867355    0.7852544784545897    0.8835049867630004 F
   0.4808472394943237    0.4255396723747253    0.9410544633865355 F
   0.4855784773826599    0.4307515621185302    0.4652090668678283 F
   0.8037661314010620    0.0698438212275505    0.5221809744834900 F
