Ga2 F6
1.0
   4.3972206115722656    0.0000000000000000    2.2472388744354248
   2.5827737102488286    4.6311034117879144    3.3233420848846431
   0.0000000000000000    0.0000000000000000    4.9170584678649902
Ga F
2 6
direct
   0.1442834436893463    0.5155586600303650    0.7910671234130859 Ga
   0.8272946476936340    0.0150187341496348    0.9762521982192992 Ga
   0.9858958125114441    0.2643369436264038    0.8832502365112305 F
   0.3604245185852051    0.2459139525890350    0.1695754081010818 F
   0.7167919874191284    0.7458711862564087    0.0284343119710684 F
   0.6112625002861023    0.2830492854118347    0.5977846980094910 F
   0.2519980072975159    0.7851814031600951    0.7385213971138000 F
   0.9857220053672791    0.7655054330825806    0.3842260837554932 F
