K2 Mg1 F4
1.0
   3.1576895713806152    0.0000000000000000   -0.9665498733520504
  -0.9054457156459237    5.8762477921693099   -2.9319269657135005
   0.0000000000000000    0.0000000000000000    5.6748781204223633
K Mg F
2 1 4
direct
   0.1416592895984650    0.5184296369552612    0.0831279903650284 K
   0.4680153727531434    0.8753066658973695    0.7361114025115967 K
   0.8050695061683655    0.1962368786334991    0.4092256426811218 Mg
   0.1712097823619843    0.1433798223733902    0.1430346965789795 F
   0.8589429855346680    0.5211547017097473    0.5163081884384155 F
   0.4379722177982330    0.2504431009292603    0.6759061217308044 F
   0.7523229122161865    0.8718895912170410    0.3032853901386261 F
