K2 Ba2 F6
1.0
   6.5058240890502930    0.0000000000000000   -3.4596695899963379
  -0.6433968937495466    4.0953129044937482   -1.1875652074813843
   0.0000000000000000    0.0000000000000000    7.7720370292663574
K Ba F
2 2 6
direct
   0.2168901860713959    0.5970004200935364    0.1351800411939621 K
   0.2829032838344574    0.3239989578723907    0.5937661528587341 K
   0.7059876918792725    0.0881545618176460    0.1203794032335281 Ba
   0.7920566797256470    0.8326864838600159    0.6101351380348206 Ba
   0.4928914308547974    0.5350726842880249    0.0152516486123204 F
   0.5060957670211792    0.8825783133506775    0.7097623348236084 F
   0.9921231865882874    0.0378315187990665    0.0183882378041744 F
   0.0055095134302974    0.3847458362579346    0.7129287123680115 F
   0.9733276963233948    0.7071700692176819    0.3583981692790985 F
   0.5245674848556519    0.2126903831958770    0.3715814352035522 F
