K2 Ba2 Al2 F12                          
   1.00000000000000     
     5.6581334608672433   -0.0100235661324352    0.0082740577783035
     2.8345353239792583    4.8937445889260349    0.0017199144621450
    -0.0152745116483913   -0.0020789981177226    9.3871063937770938
   K    Ba   Al   F 
     2     2     2    12
Direct
  0.7336598082750725  0.0420819386037606  0.0349748174015240
  0.0667898949484209  0.3757588071374004  0.2748503418726204
  0.7326958858983607  0.0424829846711799  0.4904204992934066
  0.0666194022400239  0.3754784743302500  0.8193717827934434
  0.3993176809191903  0.7088833838806191  0.6550051573243124
  0.3993589786891560  0.7090320471964225  0.1549439873467944
  0.2419921866935988  0.0229154625904636  0.5484561798442215
  0.7114167798665997  0.5524782980267104  0.5472426558187801
  0.5542131192001198  0.8644577946158518  0.2659776634516370
  0.5570957114894661  0.3948398267759494  0.7614470548593428
  0.2444042501811804  0.0197550308512417  0.0443778682243495
  0.0886311748511659  0.8644359695413477  0.2655167245541833
  0.2412116978328421  0.5528134454338290  0.5481208193421462
  0.5576406294102908  0.8650726231880178  0.7617117657458453
  0.2440351439159498  0.5537013648908824  0.0441017136164063
  0.7096666892825999  0.5537903881499711  0.0442405710887963
  0.0871088973019796  0.8654279818289442  0.7626173918926131
  0.5545030099968142  0.3985875492373802  0.2655466248446051
 
  0.00000000E+00  0.00000000E+00  0.00000000E+00
  0.00000000E+00  0.00000000E+00  0.00000000E+00
  0.00000000E+00  0.00000000E+00  0.00000000E+00
  0.00000000E+00  0.00000000E+00  0.00000000E+00
  0.00000000E+00  0.00000000E+00  0.00000000E+00
  0.00000000E+00  0.00000000E+00  0.00000000E+00
  0.00000000E+00  0.00000000E+00  0.00000000E+00
  0.00000000E+00  0.00000000E+00  0.00000000E+00
  0.00000000E+00  0.00000000E+00  0.00000000E+00
  0.00000000E+00  0.00000000E+00  0.00000000E+00
  0.00000000E+00  0.00000000E+00  0.00000000E+00
  0.00000000E+00  0.00000000E+00  0.00000000E+00
  0.00000000E+00  0.00000000E+00  0.00000000E+00
  0.00000000E+00  0.00000000E+00  0.00000000E+00
  0.00000000E+00  0.00000000E+00  0.00000000E+00
  0.00000000E+00  0.00000000E+00  0.00000000E+00
  0.00000000E+00  0.00000000E+00  0.00000000E+00
  0.00000000E+00  0.00000000E+00  0.00000000E+00
