F  Li Na Rb
 1.0000000000000000
     5.8348830978227344    0.0000000000000000    0.0000000000000000
     2.7220793838237944    5.1786284567423309    0.0000000000000000
     4.1676223770293355    0.4255887755835099    5.6056869358202110
 F   Li  Na  Rb 
   6   2   3   1
Cartesian
  5.9641213629935290  0.3485464958256699  1.0330186232821490
  7.1226872757012449  4.4951788389297720  4.2873056169045975
  7.2472894625298627  0.6602646953197279  4.0211018981338702
  2.5190654782126609  2.5977675194358687  1.5417645828126640
  5.8328314979557163  4.1836127289643885  1.2882766583499143
  4.7322502483747408  2.2468954563321724  3.7748811919541843
  5.4686551065122311  0.8018791947623334  4.9573204221044245
  7.6199374727133469  4.0516998954137478  0.3579330956425039
  6.5436684203560063  2.4288539172906773  2.6595130405569534
  3.4617385238223450  0.6823672599325837  2.7701688850720312
  9.6318204875231839  4.1678118491379292  2.5515163296835195
  8.6290032511525947  2.6316189613572090  5.4656107186954674
