Li1 Zn4 F9                              
   1.00000000000000     
     5.3025536910500453   -0.0300445811422084    0.8117916453238034
    -2.4644086939402987    4.4224482723292624   -1.3151492092669423
     0.0527050814483910    0.0170124231083074    7.1792692524352475
   Li   Zn   F 
     1     4     9
Direct
  0.9425206820880841  0.9328708951376642  0.5752589741936255
  0.2402862924614571  0.7840851304460708  0.1513101269352898
  0.8950944700518577  0.1064144479852177  0.1598651455601896
  0.2689900183437630  0.5770043790591358  0.5325340354130284
  0.5848366671980300  0.3429435679493463  0.8272453480249055
  0.1692298135953366  0.1260025747056930  0.3438579367402853
  0.9039541327569386  0.7236115864354458  0.0096447320114150
  0.9175813997002769  0.2930866883733267  0.6753292881442856
  0.5497282347163885  0.8388041842133529  0.3259301684055819
  0.5822087366501089  0.0828485334783057  0.0163403198963089
  0.5925105903492868  0.6148469648762780  0.6598209533801340
  0.9699198544126773  0.5149215292637143  0.3406801556954782
  0.2638571782937338  0.9594155176749248  0.6767932695239575
  0.2477529313647496  0.3920889376902848  0.0048691023454586
 
  0.00000000E+00  0.00000000E+00  0.00000000E+00
  0.00000000E+00  0.00000000E+00  0.00000000E+00
  0.00000000E+00  0.00000000E+00  0.00000000E+00
  0.00000000E+00  0.00000000E+00  0.00000000E+00
  0.00000000E+00  0.00000000E+00  0.00000000E+00
  0.00000000E+00  0.00000000E+00  0.00000000E+00
  0.00000000E+00  0.00000000E+00  0.00000000E+00
  0.00000000E+00  0.00000000E+00  0.00000000E+00
  0.00000000E+00  0.00000000E+00  0.00000000E+00
  0.00000000E+00  0.00000000E+00  0.00000000E+00
  0.00000000E+00  0.00000000E+00  0.00000000E+00
  0.00000000E+00  0.00000000E+00  0.00000000E+00
  0.00000000E+00  0.00000000E+00  0.00000000E+00
  0.00000000E+00  0.00000000E+00  0.00000000E+00
