Li6 Bi2 F12
1.0
   5.3956031799316406    0.0000000000000000   -0.9115153551101692
  -0.9262261066515968    6.7116697876456701    1.3248360157012946
   0.0000000000000000    0.0000000000000000    6.8609657287597656
Li Bi F
6 2 12
direct
   0.9663534760475159    0.5348389148712158    0.7286768555641174 Li
   0.5161045193672180    0.7541075348854065    0.3713179826736450 Li
   0.9895194768905640    0.0585245154798031    0.6366612911224365 Li
   0.0191609971225261    0.9610873460769652    0.1646323949098587 Li
   0.4890171289443970    0.2335147559642792    0.4609263539314270 Li
   0.4624951779842377    0.3299457132816315    0.9329675436019897 Li
   0.4902235269546509    0.8320043683052063    0.8643940687179565 Bi
   0.9898046851158142    0.4598640203475952    0.2339663654565811 Bi
   0.7726134061813354    0.7362943887710571    0.2287380099296570 F
   0.6133889555931091    0.9364121556282043    0.5515550971031189 F
   0.2106288224458694    0.4729393720626831    0.9548912048339844 F
   0.1146780177950859    0.1496855765581131    0.3383705019950867 F
   0.1190783381462097    0.7932422161102295    0.6595483422279358 F
   0.2718696296215057    0.8170755505561829    0.1452933251857757 F
   0.8645955920219421    0.3543381094932556    0.5469065904617310 F
   0.3661188483238220    0.1430221796035767    0.7609516978263855 F
   0.7107712030410767    0.5543518066406249    0.8747865557670593 F
   0.3593257665634155    0.4976222515106201    0.4420919120311737 F
   0.6183267235755920    0.2588568329811096    0.1937846392393112 F
   0.8618297576904297    0.0325265750288963    0.9058967232704163 F
