Cs3 Y1 F6                               
   1.00000000000000     
     7.2369548393236052   -0.0715068322178247    0.2610032129689183
    -3.5591732817869115    6.3090601374526516    0.1406684564765345
    -0.1460789765204074   -0.1656442501653736    7.5591335059375737
   Cs   Y    F 
     3     1     6
Direct
  0.1480476873379963  0.4950237537543707  0.3129010569903901
  0.4827445867828410  0.1616188973355410  0.3383968883600553
  0.8153623441000090  0.8291737907993927  0.8252848119412123
  0.8153060117988287  0.8276101779204622  0.3246517382934371
  0.0544885464012727  0.8169712391562216  0.4920300363244546
  0.5588219877791079  0.5809566198290036  0.4919983724617942
  0.0716592549493713  0.0755146406291950  0.1582056597652069
  0.5756439915947543  0.8405051900991234  0.1591611952866915
  0.8110483413135902  0.5794842405475772  0.1572281217496531
  0.8182522175736624  0.0760277911432925  0.4898870854532719
 
  0.00000000E+00  0.00000000E+00  0.00000000E+00
  0.00000000E+00  0.00000000E+00  0.00000000E+00
  0.00000000E+00  0.00000000E+00  0.00000000E+00
  0.00000000E+00  0.00000000E+00  0.00000000E+00
  0.00000000E+00  0.00000000E+00  0.00000000E+00
  0.00000000E+00  0.00000000E+00  0.00000000E+00
  0.00000000E+00  0.00000000E+00  0.00000000E+00
  0.00000000E+00  0.00000000E+00  0.00000000E+00
  0.00000000E+00  0.00000000E+00  0.00000000E+00
  0.00000000E+00  0.00000000E+00  0.00000000E+00
