Cs3 H2 F5
1.0
   6.0013442039489746    0.0000000000000000   -2.5718579292297372
  -2.0650261393253690    5.4761048421771736    0.4718906879425045
   0.0000000000000000    0.0000000000000000    6.1774940490722656
Cs H F
3 2 5
direct
   0.1098166853189468    0.5937882065773010    0.1364137679338455 Cs
   0.6363601088523865    0.8651664257049561    0.9012748599052429 Cs
   0.6358443498611450    0.3079182505607606    0.4425478577613831 Cs
   0.3195388913154602    0.2447191774845124    0.8884303569793701 H
   0.0971449017524720    0.9136784672737123    0.5115639567375183 H
   0.1050788983702660    0.0656638815999031    0.3841270506381989 F
   0.5826649069786072    0.7939344644546509    0.3821569979190826 F
   0.5536868572235107    0.3317606449127197    0.9154583215713501 F
   0.1478437930345535    0.1882196217775345    0.9022839665412903 F
   0.1103212609887123    0.7248247265815736    0.6195355653762817 F
