Cs3 Mg1 F5                              
   1.00000000000000     
     5.7865546251944986    0.1161734270134104    3.1588820545468583
     2.0022465587313598    5.5092204997785581    3.3946668958555044
    -0.0559666419054421    0.1126625828558374    6.5978295379918697
   Cs   Mg   F 
     3     1     5
Direct
  0.3797108391686878  0.2822433152575584  0.1008130250761040
  0.6393765985373658  0.5232697492070502  0.3606668156524869
  0.8784206811642498  0.7829698838291789  0.6019980387819601
  0.1253327726010685  0.0379491047394010  0.8454988481450634
  0.8706809664585133  0.2928750621307281 -0.0057801031408106
  0.2756266288932728  0.8876052234203745  0.5920696043298058
  0.2748503537172934  0.2919714516773314  0.5919171177675184
  0.8727288734155982  0.8857868288827371 -0.0025420574960908
  0.3375369745357719  0.8293619950867498  0.0538745222974895
 
  0.00000000E+00  0.00000000E+00  0.00000000E+00
  0.00000000E+00  0.00000000E+00  0.00000000E+00
  0.00000000E+00  0.00000000E+00  0.00000000E+00
  0.00000000E+00  0.00000000E+00  0.00000000E+00
  0.00000000E+00  0.00000000E+00  0.00000000E+00
  0.00000000E+00  0.00000000E+00  0.00000000E+00
  0.00000000E+00  0.00000000E+00  0.00000000E+00
  0.00000000E+00  0.00000000E+00  0.00000000E+00
  0.00000000E+00  0.00000000E+00  0.00000000E+00
