Dy Tl F  Be F  Be F                                                                                 
 1.000
    5.2029881484744136    0.0000000000000000    0.0000000000000000
   -0.0264808377544438    5.1876119077845999    0.0000000000000000
   -0.0001051054509954   -0.0496292355505661    6.2366923760838944
   Be   Dy   F    Tl
    2    1    8    1
Direct
    0.6353212594985962    0.2296961694955825    0.9291248321533201     Be1
    0.1370158493518830    0.7330552935600282    0.4325301349163055     Be2
    0.1366397440433502    0.7314326763153077    0.9312087297439575     Dy1
    0.4362448155879974    0.4297553896903992    0.8241692185401914      F1
    0.9809108972549436    0.5707749724388123    0.6029249429702758      F2
    0.4377409517765044    0.0334294587373734    0.0380036346614361      F3
    0.2945002317428588    0.8898023962974548    0.6055756211280823      F4
    0.2927646934986115    0.5723825693130493    0.2592140436172485      F5
    0.9806493520736694    0.8916754722595215    0.2619181871414185      F6
    0.8339360356330873    0.4307552576065063    0.0382879301905632      F7
    0.8347681760787962    0.0302114132791758    0.8259253501892090      F8
    0.6337122321128845    0.2309887111186981    0.4308261573314666     Tl1
