Na3 Ho1 F6
1.0
   3.3755817413330078    0.0000000000000000   -0.8687179684638974
  -0.0432190953567489    5.6894944916203904   -0.1454305350780479
   0.0000000000000000    0.0000000000000000    6.9643325805664062
Na Ho F
3 1 6
direct
   0.0005420120432973    0.0685444101691246    0.5629134178161621 Na
   0.3691381812095642    0.6401367187500000    0.3006786108016968 Na
   0.2887125909328461    0.1145158410072327    0.1371841281652451 Na
   0.6324213147163391    0.5388424992561340    0.8243594765663147 Ho
   0.1372271925210953    0.2953317761421204    0.8358912467956543 F
   0.5304022431373596    0.8178102374076842    0.6205422282218933 F
   0.1909423172473907    0.7447014451026917    0.9419655799865724 F
   0.8505890369415282    0.9135025143623352    0.2649549841880798 F
   0.4874628782272338    0.3498024642467498    0.5371654033660889 F
   0.7876111268997191    0.4115845561027526    0.1341571062803268 F
