Cs2 Sb1 F5                              
   1.00000000000000     
     4.9398778464273514   -0.0068722607743506    0.0028732660138769
     0.0068210841352894    5.6620712197958847   -3.4912826745919241
    -0.0155840363482139    0.0598443891535661    6.4461291059551176
   Cs   Sb   F 
     2     1     5
Direct
  0.8069714663756491  0.6868930460746124  0.1139092300353387
  0.1993430626933919  0.0066808854395098  0.7545453177601206
  0.5400980212983637  0.3459631794344251  0.4318242195245122
  0.2831222324265995  0.0470906108346213  0.2753371643289482
  0.2845418945387048  0.4885012864501738  0.2741025509356207
  0.2695148433097315  0.4771924363811044  0.6951172000416146
  0.6960688994453766  0.6935632976538114  0.6531607630264318
  0.6962409869155857  0.2190714043966591  0.6524685540231637
 
  0.00000000E+00  0.00000000E+00  0.00000000E+00
  0.00000000E+00  0.00000000E+00  0.00000000E+00
  0.00000000E+00  0.00000000E+00  0.00000000E+00
  0.00000000E+00  0.00000000E+00  0.00000000E+00
  0.00000000E+00  0.00000000E+00  0.00000000E+00
  0.00000000E+00  0.00000000E+00  0.00000000E+00
  0.00000000E+00  0.00000000E+00  0.00000000E+00
  0.00000000E+00  0.00000000E+00  0.00000000E+00
