Rb3 Nd1 Zr2 F14
1.0
   6.7450470924377441    0.0000000000000000   -2.1499507427215563
  -3.1097857196894250    6.4697411760074681   -1.9789531230926509
   0.0000000000000000    0.0000000000000000    8.5522661209106445
Rb Nd Zr F
3 1 2 14
direct
   0.2673656046390534    0.5517691969871522    0.3786139786243439 Rb
   0.0202264804393053    0.6366505622863770    0.8095560669898987 Rb
   0.1427443474531174    0.0937650427222252    0.5948773026466370 Rb
   0.6432841420173645    0.5944509506225586    0.0952808931469917 Nd
   0.5714002251625061    0.1449932456016541    0.3339762091636658 Zr
   0.7153004407882690    0.0416560992598534    0.8552048206329346 Zr
   0.6837233304977417    0.3338068425655365    0.9085111618041992 F
   0.9808552861213684    0.7225217223167419    0.2936920523643493 F
   0.4534944593906403    0.2974192798137665    0.4825030565261841 F
   0.6429879069328308    0.0937796160578728    0.5944891571998596 F
   0.5575875043869019    0.3961422443389893    0.2493741065263748 F
   0.6425787210464478    0.0935285761952400    0.0948484912514687 F
   0.2617394030094147    0.9515547156333923    0.1543665230274200 F
   0.9075149893760681    0.3238814175128937    0.4678533673286438 F
   0.3792725801467896    0.8636031150817871    0.7208940386772156 F
   0.6038895845413208    0.8544892072677612    0.2814802825450897 F
   0.8334545493125917    0.8898420929908754    0.7080839276313782 F
   0.7279836535453796    0.7908094525337220    0.9412574172019958 F
   0.0259025655686856    0.2364095002412796    0.0360939353704453 F
   0.3049890100955963    0.4637445807456971    0.8956709504127502 F
