Na2 Ti1 F6                              
   1.00000000000000     
     4.5033628139187405    0.0025753949106317   -0.0228014830355435
    -0.0237958442375402    4.7621048434311044   -2.7551461740902310
    -0.0105032049612236    0.0102482281317893    5.5037526067346914
   Na   Ti   F 
     2     1     6
Direct
  0.7823277023620173  0.9542033994787515  0.6119898621597535
  0.0438546011220979  0.2882290781247416  0.2808001833049018
  0.4144538178317182  0.6222991519147049  0.9486168440309106
  0.6479475868635391  0.4575213072299759  0.6218420710096548
  0.1788886289749201  0.7893712424046303  0.7871705227196465
  0.6507606290853359  0.4568207270969274  0.1114431179602392
  0.6551866327702890  0.9479754136088028  0.1127646598796057
  0.1736976973484501  0.2974113804613006  0.7851987722571558
  0.1826752389466552  0.7861522302679337  0.2765264073929679
 
  0.00000000E+00  0.00000000E+00  0.00000000E+00
  0.00000000E+00  0.00000000E+00  0.00000000E+00
  0.00000000E+00  0.00000000E+00  0.00000000E+00
  0.00000000E+00  0.00000000E+00  0.00000000E+00
  0.00000000E+00  0.00000000E+00  0.00000000E+00
  0.00000000E+00  0.00000000E+00  0.00000000E+00
  0.00000000E+00  0.00000000E+00  0.00000000E+00
  0.00000000E+00  0.00000000E+00  0.00000000E+00
  0.00000000E+00  0.00000000E+00  0.00000000E+00
