Li7 Mn2 F11
1.0
   4.0899844169616699    0.0000000000000000    0.7831228375434874
   2.1009566320318518    4.6480879004871278    0.1281901895999916
   0.0000000000000000    0.0000000000000000   11.0888471603393555
Li Mn F
7 2 11
direct
   0.7367017865180969    0.1508318781852722    0.9934417605400084 Li
   0.1221409887075424    0.5029525160789490    0.8706748485565184 Li
   0.5788168311119081    0.9605513215065002    0.4988380670547485 Li
   0.4272427856922150    0.7575684785842896    0.0031976699829102 Li
   0.2204377651214600    0.5882170796394348    0.5881680846214294 Li
   0.9368171691894530    0.3315832912921906    0.4115706384181976 Li
   0.0424568913877010    0.4071936309337617    0.1255073696374893 Li
   0.3028220832347870    0.7122746706008911    0.3024574518203735 Mn
   0.8586743474006653    0.2036311030387878    0.6939162015914917 Mn
   0.5045980811119080    0.4746487736701965    0.1313477754592896 F
   0.1218967586755752    0.1272818446159363    0.2497956603765487 F
   0.6594656705856323    0.4361351132392884    0.8657045960426329 F
   0.7910012006759644    0.7069297432899475    0.3318356573581696 F
   0.7411807179450990    0.5598689317703247    0.5751660466194153 F
   0.9250656962394714    0.7518476843833923    0.0134372087195516 F
   0.0382542833685875    0.7915331125259399    0.7498154640197754 F
   0.3658714294433594    0.2142976969480515    0.6678061485290527 F
   0.2389369606971740    0.1571324616670609    0.9830088019371032 F
   0.4161319732666016    0.3606304228305817    0.4240370392799377 F
   0.0785245299339295    0.9609029293060303    0.5001272559165955 F
