Ca1 Ce1 F5                              
   1.00000000000000     
     4.0307046177294605    0.0002983789762333   -0.0099232041842721
    -2.0153181269176974    3.4987923941055228    0.0032657997938954
     0.0138795161185420    0.0131918815164987    7.2663256090801127
   Ca   Ce   F 
     1     1     5
Direct
  0.7211613369755265  0.0744361254993562  0.5235720362178330
  0.0547467128331921  0.7451273299133723  0.0544300694051129
  0.3874858550054627  0.4086160694014527  0.5830681543039129
  0.7208702238995318  0.0767201093375932  0.1973665363653473
  0.0539832673713081  0.7415966227852226  0.3760328508530045
  0.3872373565015920  0.4112416844167147  0.0315956886322355
  0.7197741643278499  0.0738519988366034  0.8438028144269741
 
  0.00000000E+00  0.00000000E+00  0.00000000E+00
  0.00000000E+00  0.00000000E+00  0.00000000E+00
  0.00000000E+00  0.00000000E+00  0.00000000E+00
  0.00000000E+00  0.00000000E+00  0.00000000E+00
  0.00000000E+00  0.00000000E+00  0.00000000E+00
  0.00000000E+00  0.00000000E+00  0.00000000E+00
  0.00000000E+00  0.00000000E+00  0.00000000E+00
