Y1 Bi1 F6
1.0
   4.5416922569274902    0.0000000000000000    0.7376914024353028
  -1.4902134376063718    4.3931805795071259   -0.7160555720329286
   0.0000000000000000    0.0000000000000000    6.4891061782836914
Y Bi F
1 1 6
direct
   0.6951627731323242    0.9258188605308534    0.1280693858861923 Y
   0.1959988176822662    0.4262479841709137    0.6273043751716614 Bi
   0.5802208185195923    0.6327859163284302    0.8247247934341431 F
   0.8116692304611206    0.2170371413230896    0.4303185343742371 F
   0.1943506449460983    0.9227482676506041    0.1245489269495010 F
   0.9017779827117920    0.2988425195217133    0.9372751116752625 F
   0.4886973798274994    0.5482632517814636    0.3167751133441925 F
   0.1968076080083847    0.9259669184684753    0.6261579394340515 F
