K3 Rb4 Bi1 F10
1.0
   6.9328479766845703    0.0000000000000000   -2.3696584701538086
  -2.0089506919575220    6.7828769490559040   -2.3724341392517090
   0.0000000000000000    0.0000000000000000    9.0921440124511719
K Rb Bi F
3 4 1 10
direct
   0.3261407315731049    0.2575364112854004    0.9059019088745117 K
   0.4514715969562531    0.8490735888481140    0.0650563314557076 K
   0.3690591752529144    0.3027971386909484    0.4225082397460938 K
   0.8690061569213867    0.8380780816078186    0.4642011821269989 Rb
   0.8994052410125732    0.8313030004501342    0.9049465656280518 Rb
   0.4151665568351745    0.8810396194458007    0.5736013650894165 Rb
   0.9077470302581787    0.3707226812839508    0.5589658021926880 Rb
   0.9118897914886475    0.3936148881912231    0.0724190399050713 Bi
   0.7039245367050171    0.6162976622581481    0.0651345998048782 F
   0.1863981038331985    0.1635094434022903    0.5777313709259033 F
   0.2098242491483688    0.8720677495002747    0.7917287349700928 F
   0.6613967418670654    0.6191049814224242    0.5818919539451599 F
   0.1347239017486572    0.2147345095872879    0.1050887703895569 F
   0.5694027543067932    0.0326538793742657    0.3838123679161072 F
   0.1167463958263397    0.5524447560310364    0.9719326496124268 F
   0.0823794826865196    0.5565524101257324    0.3659401834011078 F
   0.7716354131698608    0.1717290580272675    0.8051694035530090 F
   0.6795043349266051    0.1979344040155410    0.1120847910642623 F
