Ba1 B2 H1 Cl2 O1 F5
1.0
   5.0536470413208017    0.0000000000000000   -1.3791691064834588
  -1.5877370534828106    5.6781397119756694   -2.1664438247680660
   0.0000000000000000    0.0000000000000000    7.3358206748962402
Ba B H Cl O F
1 2 1 2 1 5
direct
   0.6097647547721863    0.1448082476854324    0.7349428534507751 Ba
   0.9895184636116029    0.5597466230392456    0.2490614503622055 B
   0.9445686936378479    0.2759081423282623    0.4279778599739075 B
   0.4280604720115662    0.7294890880584717    0.0426379404962063 H
   0.2030905634164810    0.0167126748710871    0.9363702535629272 Cl
   0.6263551712036133    0.6373368501663209    0.7051268815994263 Cl
   0.0416337698698044    0.3855430185794830    0.3347445428371429 O
   0.6922598481178284    0.1053816452622414    0.3516063690185547 F
   0.0710069760680199    0.5083261728286743    0.0687471851706505 F
   0.7053561210632324    0.5466734766960145    0.1754962354898453 F
   0.0902042388916016    0.2877222597599030    0.6164754629135132 F
   0.1489017456769943    0.7945732474327087    0.3859335780143738 F
