Li2 Mn2 F6                              
   1.00000000000000     
     3.1403455097568207   -0.0044605075962409   -0.0348535620793082
    -0.0147131928295679    5.0638222828885446   -0.6127461902664381
    -0.0671265831386166   -0.2629211172390705    7.0131571197552081
   Li   Mn   F 
     2     2     6
Direct
  0.2305544439830051  0.0368550893774957  0.6014655828184966
  0.7177323169060648  0.2347165167254642  0.3262812110614568
  0.7370756136833736  0.5639359854799175  0.8132019808637895
  0.2112270525937069  0.7102318285032908  0.1154094380832985
  0.2369528542010520  0.3787677858797404  0.9210075201620447
  0.7149517679449423  0.5632715676359479  0.2441362959455272
  0.2153526378509775  0.0282487712113103  0.3172580688143400
  0.7312520390906031  0.2451685664947254  0.6121503747515180
  0.2341052965699982  0.7099154582732689  0.6845162960587376
  0.7110222608457489  0.8959841336779489  0.0074586332857692
 
  0.00000000E+00  0.00000000E+00  0.00000000E+00
  0.00000000E+00  0.00000000E+00  0.00000000E+00
  0.00000000E+00  0.00000000E+00  0.00000000E+00
  0.00000000E+00  0.00000000E+00  0.00000000E+00
  0.00000000E+00  0.00000000E+00  0.00000000E+00
  0.00000000E+00  0.00000000E+00  0.00000000E+00
  0.00000000E+00  0.00000000E+00  0.00000000E+00
  0.00000000E+00  0.00000000E+00  0.00000000E+00
  0.00000000E+00  0.00000000E+00  0.00000000E+00
  0.00000000E+00  0.00000000E+00  0.00000000E+00
