Cs1 Rb1 Na1 Tl1 Sb3 F13
1.0
   6.1613712310791007    0.0000000000000000   -1.7860677242279059
  -0.1431406791673434    6.5666144395723860    0.8705117702484140
   0.0000000000000000    0.0000000000000000    9.9728946685791016
Cs Rb Na Tl Sb F
1 1 1 1 3 13
direct
   0.9337370395660400    0.2393576800823212    0.4620273113250732 Cs
   0.8149051666259766    0.7633408904075621    0.1710669249296189 Rb
   0.3323464989662170    0.7674115896224976    0.2027321904897690 Na
   0.6194683909416199    0.1890703290700912    0.8300796747207642 Tl
   0.2855898141860962    0.2807612419128417    0.0866596549749374 Sb
   0.0947455018758774    0.7587391138076782    0.8228049874305725 Sb
   0.4819799065589905    0.6650032997131347    0.5692574381828308 Sb
   0.1728616803884506    0.1064408943057060    0.2283533960580826 F
   0.6381308436393738    0.7456654906272887    0.4154219925403595 F
   0.4942774474620819    0.4374852180480956    0.2241195142269135 F
   0.7723186612129211    0.5225941538810730    0.7006462216377258 F
   0.1988132596015930    0.6921628117561339    0.4026987552642822 F
   0.0702259093523026    0.4949469864368438    0.1084632948040962 F
   0.5382180213928223    0.0703026801347732    0.1546941250562668 F
   0.2893914580345154    0.5235362648963928    0.7013076543807983 F
   0.4041392505168915    0.7135688066482544    0.9680705070495605 F
   0.2521959245204926    0.9716824293136596    0.7252832651138306 F
   0.4576811194419861    0.3804942071437835    0.5208788514137268 F
   0.8233935832977295    0.9577283859252929    0.7123755216598511 F
   0.0742680132389068    0.9287747144699096    0.9732069969177246 F
