Bi F  Lu
 1.0000000000000000
     5.8554147418810336    0.0000000000000000    0.0000000000000000
     2.9060780644180233    5.0988347237400262    0.0000000000000000
     2.9145304107959418    1.6901242420965639    5.2477106912630536
 Bi  F   Lu 
   1   6   1
Cartesian
  8.8433029505763958  3.8107718919483764  4.9864307994806500
 10.0920458514483276  5.1258214564622291  3.6310024578604372
  7.0793955307406025  4.2560740549975895  3.6329514394624658
  4.6765620410486415  0.8028738700930895  1.0851781611403655
  3.5033172554419845  2.0692938006368040  3.6281970629015872
  5.4159248686541881  3.8572033898167333  1.0970824006365629
  1.8344516981437302  1.6758771598327005  1.0891033368944751
  5.9128829826439642  5.5143199605390887  2.3584716761860496
