K  F  K  Tb K  Sm F  Tb F                                                                           
 1.000
    6.9560683867753657    0.0000000000000000    0.0000000000000000
   -3.3454479545132463    6.2440410867845051    0.0000000000000000
   -2.2897554516546035   -4.1064884628322318    6.7419669537649787
   F    K    Sm   Tb
   12    3    1    2
Direct
    0.7680477499961852    0.0516583733260632    0.2144956737756729      F1
    0.0191035866737367    0.8621350526809695    0.9191389083862306      F2
    0.6855934858322144    0.2509315013885499    0.4639891684055329      F3
    0.5156528949737549    0.0816222280263901    0.8782411217689514      F4
    0.2442114800214768    0.7585000395774841    0.2267247140407562      F5
    0.0110777448862791    0.9092355966567993    0.4961276352405548      F6
    0.2275432199239731    0.1435224115848541    0.3414229750633240      F7
    0.2370057702064514    0.5979663729667664    0.5043374896049500      F8
    0.4932050108909608    0.3652060925960541    0.1793619245290756      F9
    0.7939663529396057    0.0781699270009995    0.6708353161811829     F10
    0.2326744645833970    0.5935727953910829    0.8585972189903260     F11
    0.4372921884059907    0.3680127859115601    0.7180494666099549     F12
    0.7612662315368652    0.6562532782554626    0.0836881101131439      K1
    0.6776221990585327    0.6309140324592590    0.5599241852760315      K2
    0.0560606308281422    0.2805316746234894    0.0673054903745651      K3
    0.4004778265953064    0.0106214731931686    0.5582488775253296     Sm1
    0.0512921363115311    0.2714333534240723    0.5516157746315002     Tb1
    0.3994702100753784    0.9990701675415038    0.0986025929450989     Tb2
