K3 S1 O2 F3
1.0
   5.4733147621154785    0.0000000000000000   -0.0033284889068456
  -2.6538157140985441    5.7235377346431813   -2.6935648918151851
   0.0000000000000000    0.0000000000000000    5.4875988960266113
K S O F
3 1 2 3
direct
   0.0323791801929474    0.9373635053634645    0.4764122068881990 K
   0.5458406805992126    0.9591425657272339    0.9884589910507203 K
   0.2899864614009858    0.4486049711704255    0.2334140092134476 K
   0.7885912060737610    0.4478507339954376    0.7328084111213684 S
   0.5591867566108704    0.4584588706493378    0.7361118197441101 O
   0.0205924101173878    0.4366283714771271    0.7281213998794556 O
   0.5180949568748475    0.9088497757911683    0.4639382362365723 F
   0.7889460325241089    0.4481032192707062    0.2314222604036331 F
   0.0628945007920265    0.9889656901359559    0.0016712399665266 F
