Li4 Fe2 F8                              
   1.00000000000000     
     4.9684828127801532   -0.5850428675454522   -1.6305970330597876
    -0.6228744045155601    3.7549344101926918   -3.2974147427052194
    -0.1975621743524801   -0.0422902558670452    7.7026937523761223
   Li   Fe   F 
     4     2     8
Direct
  0.5122571486220241 -0.0923420906478058  0.5304640876186700
  0.0122089175755255  0.4388109331529400  0.5291927335476835
  0.0691296792062338  0.2903526731188076  0.8775797518206173
  0.5680862572343709  0.7564093609496484  0.8768203211209983
  0.2898932919729036  0.0979822223151130  0.2030951268649039
  0.7903201646631103  0.5985320589018946  0.2036563254500349
  0.3819420200103107  0.5818637370274259  0.5476541192254969
  0.8820649226245084  0.8035458995167024  0.5478490980618321
  0.6641358079733171  0.0410460409588916  0.3230683348917190
  0.9159513283163569  0.1556687973239308  0.0839387268373896
  0.6988152751373096  0.3932229956514886  0.8590821324614882
  0.1990812954572274  0.6143663433856673  0.8584312499804787
  0.1634173234173660  0.8947771652058979  0.3227417897437110
  0.4165730700052946  0.3016197336843089  0.0837272254559232
 
  0.00000000E+00  0.00000000E+00  0.00000000E+00
  0.00000000E+00  0.00000000E+00  0.00000000E+00
  0.00000000E+00  0.00000000E+00  0.00000000E+00
  0.00000000E+00  0.00000000E+00  0.00000000E+00
  0.00000000E+00  0.00000000E+00  0.00000000E+00
  0.00000000E+00  0.00000000E+00  0.00000000E+00
  0.00000000E+00  0.00000000E+00  0.00000000E+00
  0.00000000E+00  0.00000000E+00  0.00000000E+00
  0.00000000E+00  0.00000000E+00  0.00000000E+00
  0.00000000E+00  0.00000000E+00  0.00000000E+00
  0.00000000E+00  0.00000000E+00  0.00000000E+00
  0.00000000E+00  0.00000000E+00  0.00000000E+00
  0.00000000E+00  0.00000000E+00  0.00000000E+00
  0.00000000E+00  0.00000000E+00  0.00000000E+00
