Ca3 Nd1 F8                              
   1.00000000000000     
     3.7643099604275250   -0.0167655714637763   -1.1249111225362596
    -2.0241754823220459    3.3620045952238220   -0.0013256848454454
     0.0398761000911387    0.0220030447517005   13.8681113315151592
   Ca   Nd   F 
     3     1     8
Direct
  0.9075950700591050  0.7579499623524110  0.0149835800677022
  0.9173057231685333  0.2634433476869947  0.7731248562029881
  0.8982347037325846  0.2515977836450854  0.2570862738777466
  0.9085588414424353  0.7567880730070721  0.5151849493590573
  0.1411233210521375  0.3720694022251713  0.4377685824308770
  0.6498380549140932  0.6280772322559054  0.3206043122172501
  0.1664705883376860  0.8881598051427454  0.7099884900244745
  0.1601486241985046  0.3842356064761493  0.9547574247592342
  0.6637518341521691  0.6368786120063361  0.8333579596895221
  0.6761495618634317  0.1418531704982723  0.5922253912355940
  0.1514496054066455  0.8777516349153597  0.1969496150231224
  0.6540749862940274  0.1304908166612089  0.0751987506658629
 
  0.00000000E+00  0.00000000E+00  0.00000000E+00
  0.00000000E+00  0.00000000E+00  0.00000000E+00
  0.00000000E+00  0.00000000E+00  0.00000000E+00
  0.00000000E+00  0.00000000E+00  0.00000000E+00
  0.00000000E+00  0.00000000E+00  0.00000000E+00
  0.00000000E+00  0.00000000E+00  0.00000000E+00
  0.00000000E+00  0.00000000E+00  0.00000000E+00
  0.00000000E+00  0.00000000E+00  0.00000000E+00
  0.00000000E+00  0.00000000E+00  0.00000000E+00
  0.00000000E+00  0.00000000E+00  0.00000000E+00
  0.00000000E+00  0.00000000E+00  0.00000000E+00
  0.00000000E+00  0.00000000E+00  0.00000000E+00
