Na1 H1 F2                               
   1.00000000000000     
     3.2819680718430631    0.0011487329955351    1.2009954544720449
     1.4261138009485945    2.9573161646729789    1.1901810666686892
     0.0225312488506822    0.0166049365463367    5.0764369246919303
   Na   H    F 
     1     1     2
Direct
  0.0250385024665800  0.0934551718146314  0.9570361715812009
  0.5248869538338456  0.5936857527895804  0.4569885639785499
  0.6065889022815031  0.6752413690085244  0.2100737982985618
  0.4425359472018198  0.5125156408836666  0.7042066062793598
 
  0.00000000E+00  0.00000000E+00  0.00000000E+00
  0.00000000E+00  0.00000000E+00  0.00000000E+00
  0.00000000E+00  0.00000000E+00  0.00000000E+00
  0.00000000E+00  0.00000000E+00  0.00000000E+00
