Li1 Sb2 F7
1.0
   5.4055466651916504    0.0000000000000000    0.9477915167808522
   0.9739134027380343    6.1370597039501913    1.0808755159378054
   0.0000000000000000    0.0000000000000000    5.5216145515441895
Li Sb F
1 2 7
direct
   0.3892053961753845    0.9790177345275880    0.2129752039909363 Li
   0.6835991740226744    0.3634895384311677    0.5020831823348999 Sb
   0.0295060705393553    0.7583954334259034    0.8395469784736633 Sb
   0.7657235264778137    0.5338423252105714    0.1717234551906586 F
   0.8143628835678099    0.6320365667343140    0.6262554526329041 F
   0.0926011055707932    0.9602119922637939    0.5252563357353210 F
   0.1736325025558471    0.9854884147644044    0.9897134900093079 F
   0.7076420783996582    0.9466418027877809    0.9212431907653809 F
   0.4902197420597076    0.2115261852741242    0.3139532804489136 F
   0.3650334477424622    0.5671821832656860    0.5338780879974365 F
