Cl F  Sr
 1.0000000000000000
     4.2246961600325132    0.0000000000000000    0.0000000000000000
    -0.0065500942940812    6.1252966610816033    0.0000000000000000
    -0.0001540218992908    0.7343961987617312    8.6188183660286271
 Cl  F   Sr 
   1   7   4
Cartesian
  1.1639629241718310  2.3455099147592096  5.7853662932553176
  1.1639151501537772  1.7992867524139873  1.6880604324902040
  1.1593441651303220  4.7816484101832630  1.7708841711501961
  1.1607983499325891  5.4724897026688017  6.2233617394096408
  3.2740340360770319  4.7131172913662267  3.9685145695634443
  3.2734956567235280  2.5494996539686365  8.3066441296045781
  3.2732372577608673  5.6485029792512513  8.3553680554290999
  3.2757760375691243  1.4132434153641487  3.5268290611053890
  3.2718487490952866  4.1675094015558347  6.3809669049706184
  3.2743715291711597  3.2413749190729044  1.8587545824478457
  1.1654148815716583  0.9452799424560649  8.3870569727624922
  1.1579383131773333  6.3320204358996452  3.7352885559954947
