Cs1 Sn1 F5
1.0
   4.1768784523010254    0.0000000000000000    0.0050512454472488
   0.0070714237995596    5.8888044814945983    0.0025529193226253
   0.0000000000000000    0.0000000000000000    5.8896999359130859
Cs Sn F
1 1 5
direct
   0.4142826795578003    0.2309814393520356    0.6886068582534790 Cs
   0.9143913388252258    0.7311180830001831    0.1887276023626327 Sn
   0.9141566157341003    0.9637070894241334    0.4218037426471710 F
   0.9147611260414124    0.4985587298870087    0.4209542274475097 F
   0.9149208664894104    0.9636977910995485    0.9558464884757994 F
   0.9143278598785400    0.4981563985347748    0.9558470845222472 F
   0.4139547348022461    0.7319651842117310    0.1883548349142074 F
