Rb2 Mg1 Sb1 F7
1.0
   5.3429346084594735    0.0000000000000000    4.8444275856018058
   1.0470792119883183    5.2911160496053595    2.2341127395629883
   0.0000000000000000    0.0000000000000000    7.3203969001770020
Rb Mg Sb F
2 1 1 7
direct
   0.0465182401239872    0.4008930921554565    0.8442605733871459 Rb
   0.5407197475433350    0.9104747772216797    0.3282572627067564 Rb
   0.3171558082103729    0.6257830858230591    0.1216661930084228 Mg
   0.7821647524833679    0.1565694808959961    0.5901103019714354 Sb
   0.4903870224952698    0.4567343890666962    0.2858282029628753 F
   0.1506182104349136    0.7869831323623658    0.9617649912834166 F
   0.9519703984260559    0.0008925199508667    0.7421282529830932 F
   0.5638486742973328    0.3750921487808228    0.8816925287246703 F
   0.0773091390728951    0.8711799383163453    0.3657649159431457 F
   0.0753709152340889    0.3779316246509552    0.3665843904018402 F
   0.5624675154685974    0.8689782023429871    0.8828371763229369 F
