Mg1 Ti1 F6
1.0
   4.8777756690979004    0.0000000000000000   -0.5494206547737114
   0.8969138492446908    4.2083748281778126   -2.3852531909942631
   0.0000000000000000    0.0000000000000000    5.1323270797729492
Mg Ti F
1 1 6
direct
   0.0696092247962952    0.8385697603225707    0.6795912384986877 Mg
   0.5694346427917480    0.3377889990806580    0.6793082952499390 Ti
   0.8126133084297180    0.5829092264175415    0.6799917221069336 F
   0.3304181396961212    0.4378111362457275    0.4035478532314301 F
   0.3313062787055969    0.7128435969352722    0.9547381401062012 F
   0.8081509470939636    0.2387916147708893    0.9553568363189697 F
   0.8073273897171022    0.9623846411705016    0.4032264649868011 F
   0.3272879421710968    0.0938388258218765    0.6784873604774475 F
