F  Nd Rb
 1.0000000000000000
     4.7013854831714248    0.0000000000000000    0.0000000000000000
     0.0042179191422202    6.5636710488045962    0.0000000000000000
    -2.4279736157573359   -3.2869244093054548    8.2295074116317064
 F   Nd  Rb 
   8   2   2
Cartesian
  2.9574596876364039  0.0865118763057986  1.8002898509706775
  2.9302676881195948  3.2823038641753302  4.8623254448451352
 -1.8014913898240292 -0.1156006837075010  7.9028074823714594
 -1.7978520556673421  3.3251082615542726  7.8895797140474730
  2.9575083463973737  3.2107751219218050  1.8172738748248674
  0.5984286363895813  4.9285919248295116  3.2959137902994358
  0.5634955338433825  1.6135458577870592  6.4086813362928678
  2.9304380498515519 -0.0199168403986319  4.8613694274734049
  2.9503105831777940  4.9266785057700488  3.1907871966234600
 -1.7898449615472212  1.6128451131435726  6.5204451136819710
  0.6157422147469761  1.6505146571303069  2.1499089355338539
  0.5372738786898188 -1.6815558116544471  7.5001799569144483
