K1 Rb1 Li1 Bi1 F6                       
   1.00000000000000     
     5.3682595432191986   -0.0004179842402631    3.1005401125487042
     1.7893295136498804    5.0578715700339325    3.1020523869058798
     0.0014336751713355   -0.0053965948923988    6.1996169457277936
   K    Rb   Li   Bi   F 
     1     1     1     1     6
Direct
  0.9661107709297861  0.3225452508067994  0.6979694458351335
  0.4661323274291884  0.8222468791868264  0.1982683586353449
  0.2157996920330313  0.5726493700235709  0.9480324029944641
  0.7159485807610608  0.0723895842328177  0.4480647605243608
  0.4565915568971675  0.8129195542537705  0.7072823987035307
  0.9753711268243797  0.3315155775958881  0.1889901293807590
  0.9746314719384580  0.8124683366463119  0.7086104769590166
  0.4569096504902689  0.3315654241082492  0.7079055696419335
  0.4553897799150998  0.3316039855191216  0.1890436089053012
  0.9751179557797589  0.8127558117512664  0.1889999453926212
 
  0.00000000E+00  0.00000000E+00  0.00000000E+00
  0.00000000E+00  0.00000000E+00  0.00000000E+00
  0.00000000E+00  0.00000000E+00  0.00000000E+00
  0.00000000E+00  0.00000000E+00  0.00000000E+00
  0.00000000E+00  0.00000000E+00  0.00000000E+00
  0.00000000E+00  0.00000000E+00  0.00000000E+00
  0.00000000E+00  0.00000000E+00  0.00000000E+00
  0.00000000E+00  0.00000000E+00  0.00000000E+00
  0.00000000E+00  0.00000000E+00  0.00000000E+00
  0.00000000E+00  0.00000000E+00  0.00000000E+00
