Rb3 Sr1 Li4 Zn1 F11
1.0
   5.7876648902893066    0.0000000000000000   -0.1004088148474691
  -0.1361028587866509    6.6314927497729581   -0.4536490142345433
   0.0000000000000000    0.0000000000000000    8.2755308151245117
Rb Sr Li Zn F
3 1 4 1 11
direct
   0.4397536516189575    0.1032228022813797    0.8859820961952209 Rb
   0.9714440107345581    0.5197789669036865    0.9421477317810059 Rb
   0.9047915339469910    0.4347118139266968    0.4853693246841431 Rb
   0.4137501716613770    0.9350700974464417    0.4265822172164917 Sr
   0.4337546527385712    0.5796800851821899    0.6847828030586243 Li
   0.9373082518577576    0.9269149303436279    0.6477720737457275 Li
   0.4147374927997589    0.3651320040225983    0.3085334897041321 Li
   0.4889829754829407    0.6956365704536439    0.0826390981674194 Li
   0.9425503015518188    0.0388809144496918    0.1831162273883820 Zn
   0.1904838085174561    0.7491654157638550    0.6409371495246887 F
   0.6425167322158813    0.1790638267993927    0.2467636168003082 F
   0.9487706422805786    0.1519101113080978    0.7887044548988342 F
   0.9842113852500916    0.9921909570693970    0.4249497652053833 F
   0.7482481002807617    0.8530956506729126    0.0464896485209465 F
   0.2312197983264923    0.8742833137512208    0.1407575905323029 F
   0.1363773643970490    0.2896926403045654    0.1959494799375534 F
   0.6587077975273132    0.7787202000617981    0.6298241615295410 F
   0.4154184162616730    0.3103142678737640    0.5365595221519470 F
   0.4573573470115662    0.5211222171783447    0.9002711772918701 F
   0.5246931910514832    0.6171780824661255    0.2913040518760681 F
