Na2 Hf1 Mg1 F8                          
   1.00000000000000     
     5.1265733053892184   -0.0169907604111600    0.0050748663295535
    -0.2131476857712797    5.1121590665187346    0.0027934718255796
     0.0004900235311247   -0.0015521678561607    6.5889962106485696
   Na   Hf   Mg   F 
     2     1     1     8
Direct
  0.6823080664166362  0.6740796639184623  0.1996065358043411
  0.6839477591366514  0.6745547683648763  0.6693346376962067
  0.1829732027716996  0.1739065095410022  0.9344225858539414
  0.1829439038467105  0.1734313917627977  0.4344192547706495
  0.3597674175429260  0.9982978321441393  0.1697861933750167
  0.4499062156956571  0.4420439133844638  0.4338619748385613
  0.0055518245848515  0.3495918718395778  0.1694665222131709
  0.0060621774303846  0.3491195181306274  0.6986315232829130
  0.4630665754042419  0.4548916552693881  0.9339860905862698
  0.9156416670671000  0.9054448397899981  0.4333038528817776
  0.3602657972223886  0.9980457911098936  0.6986599719513188
  0.9028700995734482  0.8928170987372361  0.9345671629983126
 
  0.00000000E+00  0.00000000E+00  0.00000000E+00
  0.00000000E+00  0.00000000E+00  0.00000000E+00
  0.00000000E+00  0.00000000E+00  0.00000000E+00
  0.00000000E+00  0.00000000E+00  0.00000000E+00
  0.00000000E+00  0.00000000E+00  0.00000000E+00
  0.00000000E+00  0.00000000E+00  0.00000000E+00
  0.00000000E+00  0.00000000E+00  0.00000000E+00
  0.00000000E+00  0.00000000E+00  0.00000000E+00
  0.00000000E+00  0.00000000E+00  0.00000000E+00
  0.00000000E+00  0.00000000E+00  0.00000000E+00
  0.00000000E+00  0.00000000E+00  0.00000000E+00
  0.00000000E+00  0.00000000E+00  0.00000000E+00
