Sr1 B3 F11                              
   1.00000000000000     
     6.6768605402480565   -0.1174873408679719   -0.9135136724676207
    -1.5162572216385133    5.3504512494969347   -1.1644494859479912
     0.0933935943483023    0.0629546742634425    5.5866192592569783
   Sr   B    F 
     1     3    11
Direct
  0.9549916292932982  0.1437825154901560  0.3315048837844794
  0.9905390427790858  0.5671368902998403  0.9341070923892899
  0.5702091742063931  0.5463392348699880  0.3281959529063754
  0.2909413520205895  0.9707184000468153  0.8525954015092496
  0.7139083077580254  0.7941344694506248  0.4362770159497108
  0.2298257658958512  0.0730300882685762  0.0695019804618417
  0.1700998056496134  0.6727546280845947  0.8091584866587612
  0.0728567886627268  0.5520256032359908  0.1699353494064058
  0.6951958719813552  0.3714805256854802  0.3302033754561578
  0.1986555538328485  0.0282713235788285  0.6438422266321386
  0.8971991083205377  0.3278984062996847  0.7815586509993140
  0.4937316265316496  0.9852055644472444  0.8692740891021458
  0.4878842461629024  0.5350019979482519  0.0865651975476083
  0.4188308423872381  0.4919110669349477  0.4742177771649543
  0.8671319808261170  0.7285917170210603  0.9463409417911711
 
  0.00000000E+00  0.00000000E+00  0.00000000E+00
  0.00000000E+00  0.00000000E+00  0.00000000E+00
  0.00000000E+00  0.00000000E+00  0.00000000E+00
  0.00000000E+00  0.00000000E+00  0.00000000E+00
  0.00000000E+00  0.00000000E+00  0.00000000E+00
  0.00000000E+00  0.00000000E+00  0.00000000E+00
  0.00000000E+00  0.00000000E+00  0.00000000E+00
  0.00000000E+00  0.00000000E+00  0.00000000E+00
  0.00000000E+00  0.00000000E+00  0.00000000E+00
  0.00000000E+00  0.00000000E+00  0.00000000E+00
  0.00000000E+00  0.00000000E+00  0.00000000E+00
  0.00000000E+00  0.00000000E+00  0.00000000E+00
  0.00000000E+00  0.00000000E+00  0.00000000E+00
  0.00000000E+00  0.00000000E+00  0.00000000E+00
  0.00000000E+00  0.00000000E+00  0.00000000E+00
