Cs1 Na1 Ni2 F6
1.0
   5.8766002655029297    0.0000000000000000    0.0023633833043282
   0.0072582714341634    4.1306012278865980   -0.0021638162434101
   0.0000000000000000    0.0000000000000000    5.8821649551391602
Cs Na Ni F
1 1 2 6
direct
   0.5412096381187439    0.9357127547264099    0.2500166296958923 Cs
   0.0417365394532680    0.9355722069740295    0.7507159113883972 Na
   0.0416392646729946    0.4351525604724884    0.2502482235431671 Ni
   0.5418714284896851    0.4355543851852417    0.7504372596740723 Ni
   0.0413167513906956    0.9355975389480591    0.2494687587022781 F
   0.5417899489402771    0.9358283877372742    0.7501705884933472 F
   0.8060354590415955    0.4354317486286163    0.9865261912345886 F
   0.2784891128540039    0.4360843896865845    0.5141775608062744 F
   0.2786665558815002    0.4364840090274811    0.9878418445587158 F
   0.8042001724243164    0.4349020719528198    0.5128974318504333 F
