Ba2 Cr2 F10
1.0
   4.7937355041503915    0.0000000000000000   -0.7192519903182990
   0.0679650915331325    5.8232747345154987    1.1808151006698606
   0.0000000000000000    0.0000000000000000    7.1810603141784668
Ba Cr F
2 2 10
direct
   0.0965394601225853    0.0271958764642477    0.0728337466716766 Ba
   0.3359905183315277    0.6098362803459167    0.7098093628883362 Ba
   0.7616170048713684    0.5005260109901428    0.2154834121465683 Cr
   0.6698744893074036    0.1376226097345352    0.5673555135726929 Cr
   0.5698649287223816    0.7663001418113707    0.0613025538623333 F
   0.9401423335075378    0.2140106707811355    0.3805820643901825 F
   0.8611495494842529    0.8717898130416870    0.7231042981147766 F
   0.3852961957454681    0.1073985174298286    0.7293856739997864 F
   0.9719086885452271    0.6860570311546326    0.3728156089782715 F
   0.5675441622734070    0.3004910647869110    0.0582873113453388 F
   0.8660352826118469    0.3374605476856232    0.7239235639572144 F
   0.0470377728343010    0.5313702821731567    0.0530187264084816 F
   0.4619082212448120    0.9514662623405457    0.4108793437480927 F
   0.4930142164230347    0.4229891896247864    0.4028467833995819 F
