Ba1 Tm1 F5
1.0
   4.0783972740173340    0.0000000000000000    1.4714930057525637
   1.6160141209987415    5.8336601225033036    1.8956328630447390
   0.0000000000000000    0.0000000000000000    6.3539996147155762
Ba Tm F
1 1 5
direct
   0.8849670886993408    0.6616392135620117    0.2391178160905838 Ba
   0.3852282762527466    0.1606681793928146    0.7382645606994629 Tm
   0.3844626843929291    0.4502871632575988    0.4503377676010132 F
   0.8849350214004517    0.1605769544839859    0.7392112612724304 F
   0.6123808026313782    0.9323332905769347    0.5116428732872009 F
   0.1584923863410950    0.3891730010509490    0.9666781425476074 F
   0.3868303894996643    0.8708807826042175    0.0268517304211855 F
