Li2 B4 F14
1.0
   5.8563942909240714    0.0000000000000000    2.1709485054016122
   0.7774380554089078    4.6942730625464488    1.6382578611373901
   0.0000000000000000    0.0000000000000000    8.2171850204467773
Li B F
2 4 14
direct
   0.3405279517173767    0.1831356585025787    0.5033861398696899 Li
   0.8719335198402405    0.3450612723827362    0.7814121842384338 Li
   0.8818745017051697    0.0225319769233465    0.5016022324562073 B
   0.9221735596656799    0.6567877531051636    0.0333466567099095 B
   0.2919744849205017    0.8702575564384460    0.2508952319622040 B
   0.3314289450645447    0.5041503906250000    0.7824159264564514 B
   0.3415988981723785    0.9025946259498595    0.0695543289184570 F
   0.3182321786880493    0.5844465494155884    0.3489634394645691 F
   0.8042088150978088    0.4996096491813660    0.9938423037528992 F
   0.1800595968961716    0.5282263159751892    0.9700920581817627 F
   0.8742047548294067    0.7486346960067749    0.6127246618270874 F
   0.3390143215656281    0.7782824635505675    0.6703578233718872 F
   0.2272980809211731    0.3428150415420532    0.7299133539199829 F
   0.6680116653442384    0.1606500148773193    0.4795301854610443 F
   0.8733206391334534    0.6235911250114441    0.2148670405149460 F
   0.0348302684724331    0.9982803463935852    0.3131494224071503 F
   0.9852742552757263    0.1844156384468078    0.5545719861984253 F
   0.8940470814704895    0.9416973590850829    0.9355902075767517 F
   0.5463148355484009    0.3671350181102753    0.8035047650337219 F
   0.4103304147720337    0.0282885152846575    0.2911747395992280 F
