Rb2 Bi4 F14
1.0
   4.5327434539794913    0.0000000000000000    0.9453061819076541
  -0.0326395656378821    6.9655445227720474   -0.2727672755718225
   0.0000000000000000    0.0000000000000000   10.7695627212524414
Rb Bi F
2 4 14
direct
   0.6128885149955750    0.4203487634658814    0.2378782927989960 Rb
   0.1686600893735886    0.9265431761741639    0.2526252269744873 Rb
   0.2957684993743896    0.5672285556793213    0.9196485877037048 Bi
   0.9785073995590210    0.3258642852306367    0.5803779363632202 Bi
   0.8038651347160339    0.0200146958231926    0.9109327793121338 Bi
   0.4868173003196716    0.7788182497024536    0.5723363161087036 Bi
   0.7558006644248962    0.0629907324910164    0.1132051795721054 F
   0.6313021779060364    0.5633508563041688    0.7310072779655457 F
   0.7026512026786804    0.0489730723202229    0.6835702657699584 F
   0.0293879136443138    0.2846915721893311    0.3775279819965363 F
   0.4728616476058960    0.4284850060939789    0.5254759192466736 F
   0.2629069387912750    0.0539399459958076    0.5279933214187622 F
   0.3026005327701569    0.9132884740829468    0.9685114622116089 F
   0.1511570960283279    0.7860417962074281    0.7607839703559875 F
   0.1641027033329010    0.5668064951896667    0.1266829371452332 F
   0.0388545133173466    0.6672025918960572    0.5201181173324585 F
   0.0766138657927513    0.2916313111782074    0.8097743988037109 F
   0.7390303015708923    0.6766041517257692    0.9737520217895508 F
   0.5161819458007812    0.2899253070354462    0.9622334837913513 F
   0.6173395514488220    0.7799404263496399    0.3648060858249664 F
