Rb2 H1 F3                               
   1.00000000000000     
     3.6452905525864718    0.0045447702897985   -2.1097276461393855
    -1.1150121969620272    8.3118650760648656    1.8698915710951274
     0.0021445262033999   -0.0011892445013918    4.2156781155030103
   Rb   H    F 
     2     1     3
Direct
  0.0237895897753398  0.8815136305661756  0.1570573756227011
  0.4715314488839346  0.2676124289524837  0.7138025239495477
  0.2475515229284748  0.5751148650325179  0.9363936952367897
  0.7454948417345389  0.0747081537237520  0.4356274638103518
  0.3071723112423055  0.7121970296818453  0.8734907773014094
  0.1882057486278693  0.4381134488731550  0.0000014562496651
 
  0.00000000E+00  0.00000000E+00  0.00000000E+00
  0.00000000E+00  0.00000000E+00  0.00000000E+00
  0.00000000E+00  0.00000000E+00  0.00000000E+00
  0.00000000E+00  0.00000000E+00  0.00000000E+00
  0.00000000E+00  0.00000000E+00  0.00000000E+00
  0.00000000E+00  0.00000000E+00  0.00000000E+00
