Ca1 Al1 F5                              
   1.00000000000000     
     3.5080474638317893    0.0002705102891571    1.2463826980973363
     1.3945888852547925    5.0453372118888637    1.6079783576437052
     0.0131256882411666   -0.0100738677656794    5.4873703054267171
   Ca   Al   F 
     1     1     5
Direct
  0.4000552185188320  0.6567528865294052  0.0390404882330843
  0.8998868903207066  0.1567925912641268  0.5389397094673537
  0.9003260916320126  0.8730219755433399  0.8224576606278129
  0.1222091777098608  0.9334093104612056  0.3162023412619994
  0.6768409081808426  0.3803140882832869  0.7616453029865259
  0.3999627168608620  0.1569964584694308  0.5387918835320747
  0.8997632631200007  0.4407103995579618  0.2553655917666203
 
  0.00000000E+00  0.00000000E+00  0.00000000E+00
  0.00000000E+00  0.00000000E+00  0.00000000E+00
  0.00000000E+00  0.00000000E+00  0.00000000E+00
  0.00000000E+00  0.00000000E+00  0.00000000E+00
  0.00000000E+00  0.00000000E+00  0.00000000E+00
  0.00000000E+00  0.00000000E+00  0.00000000E+00
  0.00000000E+00  0.00000000E+00  0.00000000E+00
