Cs1 Rb2 Zr1 O1 F5                       
   1.00000000000000     
     5.9885145945000140   -0.0789459232834608   -3.3809390858947443
    -2.0383834560112999    5.5966709242593646   -3.3677087212781585
    -0.0380314489336366   -0.0276789118005878    6.7848489854129870
   Cs   Rb   Zr   O    F 
     1     2     1     1     5
Direct
  0.4434780891160844  0.0767269017124083  0.0089534581880026
  0.1654889198566191  0.3274171434334716  0.4780406760672871
  0.6947172400497093  0.8025468281298499  0.4854698029717668
  0.9417114189516512  0.5739271862750782  0.9831859878108601
  0.8358764544895694  0.4645043136349937  0.6202282341673323
  0.0640747740512822  0.7033615982005880  0.4140540253834550
  0.6756085069677492  0.3005554619137547 -0.1364945058179602
  0.2386443774226214  0.8740685577057592  0.1956956477678201
  0.7483642858478698  0.8027847914879037  0.0312476560291744
  0.1779460359718733  0.3894634646332478  0.0468009236853609
 
  0.00000000E+00  0.00000000E+00  0.00000000E+00
  0.00000000E+00  0.00000000E+00  0.00000000E+00
  0.00000000E+00  0.00000000E+00  0.00000000E+00
  0.00000000E+00  0.00000000E+00  0.00000000E+00
  0.00000000E+00  0.00000000E+00  0.00000000E+00
  0.00000000E+00  0.00000000E+00  0.00000000E+00
  0.00000000E+00  0.00000000E+00  0.00000000E+00
  0.00000000E+00  0.00000000E+00  0.00000000E+00
  0.00000000E+00  0.00000000E+00  0.00000000E+00
  0.00000000E+00  0.00000000E+00  0.00000000E+00
