Mg1 Sb1 F5                              
   1.00000000000000     
     4.8857521241693629   -0.0027341445309918    2.7479017506053491
     1.6570316508538414    4.6162251600871658    2.7476690593261970
     0.0246402638601958    0.0196174224436251    5.6399425916924368
   Mg   Sb   F 
     1     1     5
Direct
  0.3354625032306551  0.8033944097888970  0.4479916732827289
  0.8399368071074024  0.3092863071284686  0.9413281192226687
  0.6325928380356809  0.6197423568110185  0.6304182268324021
  0.0949956169561752  0.5573884290786506  0.6976548043011904
  0.1503690513577786  0.0978437136097892  0.6332367981953168
  0.1474603279318243  0.0951640174166965  0.1566457646304885
  0.6270408042201477  0.6179797530186488  0.1545318227885160
 
  0.00000000E+00  0.00000000E+00  0.00000000E+00
  0.00000000E+00  0.00000000E+00  0.00000000E+00
  0.00000000E+00  0.00000000E+00  0.00000000E+00
  0.00000000E+00  0.00000000E+00  0.00000000E+00
  0.00000000E+00  0.00000000E+00  0.00000000E+00
  0.00000000E+00  0.00000000E+00  0.00000000E+00
  0.00000000E+00  0.00000000E+00  0.00000000E+00
