Zr1 Pb1 F6                              
   1.00000000000000     
     4.1850290680460294   -0.0230614994911070    0.4914299865595135
     1.9852286555458187    5.2304844355736639    0.4164845409717997
    -0.0158307469374414    0.0042693185075268    5.7094662049976082
   Zr   Pb   F 
     1     1     6
Direct
  0.7549516497562402  0.7659074519883500  0.1694993775848255
  0.1434509732785601  0.1489733657003793  0.6635396400632614
  0.2588199200548779  0.8132473815000854  0.0549806356345797
  0.7524716049702546  0.0491218813456463  0.3856003059617658
  0.6494326177444741  0.0733193627642155  0.9145765529474402
  0.0758067471945590  0.4455179726998055  0.3137534686406974
  0.4553115873295721  0.7250574482863761  0.4629457637203952
  0.8962251742986703  0.5496076223017127  0.8793222748431018
 
  0.00000000E+00  0.00000000E+00  0.00000000E+00
  0.00000000E+00  0.00000000E+00  0.00000000E+00
  0.00000000E+00  0.00000000E+00  0.00000000E+00
  0.00000000E+00  0.00000000E+00  0.00000000E+00
  0.00000000E+00  0.00000000E+00  0.00000000E+00
  0.00000000E+00  0.00000000E+00  0.00000000E+00
  0.00000000E+00  0.00000000E+00  0.00000000E+00
  0.00000000E+00  0.00000000E+00  0.00000000E+00
