F  Na Sm Y 
 1.0000000000000000
     5.5613281627547497    0.0000000000000000    0.0000000000000000
    -0.0032797914324817    5.4813455366580239    0.0000000000000000
     0.0015733281715151   -0.0020629304684576    5.4885839052468306
 F   Na  Sm  Y  
   8   2   1   1
Cartesian
  1.9215855056863165  0.3804470756869659  3.8840883602486933
  1.9207188275486098  3.0846455806672322  1.0999785968002092
  4.5221561892571938  0.3813028669149091  1.1010716703455106
  1.9157962570131748  3.0822816118997509  3.8838263170284049
  1.9235170066762002  0.3812659552419395  1.1018137172049582
  4.5212887947531444  0.3834615309845130  3.8810701196115209
  4.5160322668024184  3.0851688638903223  1.0967997279218873
  4.5159835431387103  3.0830236223477225  3.8802329553159951
  0.4376011063784841  1.7318749775153404  2.4872391671719956
  0.4387981611979201  4.4729247907530532  5.2374892498197436
  3.2180635827528450  4.4730303120183708  2.4898200148185001
  3.2203271711847794  1.7316535246119256  5.2352054499185838
