Ba3 Pr1 F8
1.0
   4.3484168052673331    0.0000000000000000    0.0409679338335980
   0.0286648968435625    6.3018828779418676    0.0267384033650169
   0.0000000000000000    0.0000000000000000    8.7394037246704102
Ba Pr F
3 1 8
direct
   0.6352134346961975    0.4768760204315186    0.6554347872734070 Ba
   0.6361287236213684    0.4773240387439728    0.1632169336080551 Ba
   0.1355662643909454    0.9764863848686218    0.9098451733589172 Ba
   0.1360912173986435    0.9768916368484497    0.4095323383808136 Pr
   0.6367862820625305    0.1909626126289368    0.4091414809226990 F
   0.1367342472076416    0.2089234441518784    0.1858556568622589 F
   0.1350005865097046    0.2078516036272049    0.6352987289428711 F
   0.1379062235355377    0.7449832558631897    0.1862406432628632 F
   0.1361921280622482    0.7446655631065369    0.6339873671531677 F
   0.6362797021865845    0.2294764965772629    0.9097195267677307 F
   0.6360349655151367    0.7656649351119995    0.4093949794769287 F
   0.6373533606529236    0.7249715924263000    0.9095188379287720 F
