Sr3 Mg1 Zn2 F12
1.0
   5.6104612350463867    0.0000000000000000    1.3320865631103505
   1.8513261299497128    6.1565512286269728    2.4209346771240234
   0.0000000000000000    0.0000000000000000    7.7350111007690430
Sr Mg Zn F
3 1 2 12
direct
   0.5536297559738159    0.8991789817810060    0.8859549164772034 Sr
   0.0114546911790967    0.4532381594181061    0.7454591989517212 Sr
   0.3745054900646209    0.3481280505657197    0.2426974028348923 Sr
   0.9777545928955077    0.0981019362807274    0.5714869499206543 Mg
   0.0092412838712334    0.9947458505630494    0.1946587562561035 Zn
   0.5877684950828551    0.6974771618843080    0.4088395237922668 Zn
   0.2109919190406799    0.1995732486248016    0.0209324080497026 F
   0.7089016437530516    0.4897322654724122    0.0338731892406940 F
   0.9296142458915709    0.4356674253940583    0.4199796617031097 F
   0.7635949850082395    0.1086545661091805    0.3895701766014099 F
   0.2404679805040359    0.9821174740791322    0.3732597231864929 F
   0.3624695241451263    0.5241519212722778    0.4717895686626434 F
   0.7521473169326781    0.2028444558382034    0.7748175263404846 F
   0.2271658331155776    0.7546068429946901    0.1056980118155479 F
   0.6180518865585326    0.7119407057762146    0.6471633911132812 F
   0.7123938798904418    0.8971250653266908    0.1789327114820480 F
   0.2611945867538452    0.1302580833435059    0.6530056595802307 F
   0.9941418170928953    0.8049326539039613    0.7386140823364258 F
