H2 Pb5 Cl5 O1 F5                        
   1.00000000000000     
     7.6197021703465113    0.0744958572222251   -0.7817247168696341
    -2.0316858510439864    6.1767927966745981   -1.4818065929104567
    -0.0514660870632347    0.0421292374432953    8.3701054622797368
   H    Pb   Cl   O    F 
     2     5     5     1     5
Direct
  0.4324803783735607  0.5495676282819401  0.6955162862117040
  0.6303754688349104  0.7165166319574807  0.7255508670221578
  0.5371696992725181  0.6643626732817491  0.0766647853212703
  0.3419128723565587  0.0566297263239353  0.7856650976611466
  0.3537460738867326  0.1879604580686592  0.2976925008052095
  0.9457975157103345  0.3362584477883517 -0.0009775931345987
  0.9527860872717586  0.2823787435125302  0.5212201641479067
  0.0145489264573552  0.6373457291233874  0.7846705008150184
  0.6918170356166938  0.4890898712548063  0.3354210596900578
  0.5734449582700569  0.0188466280056378  0.4897842116895338
  0.9077041746164519  0.9685277096058645  0.1517216166835636
  0.1944361236702311  0.5704531953329625  0.3195331840915879
  0.5139280145618861  0.6915635320175447  0.7672800351137241
  0.9618328323490352  0.1161933972542660  0.7426692976006418
  0.6159679303333576  0.3434868988422691  0.9086697126971056
  0.4197724685813570  0.9707105454322300  0.0536435956795890
  0.2700222877944995  0.3188353964775262  0.9936119579895483
  0.2877485062101655  0.2990008173754113  0.5976976485123416
 
  0.00000000E+00  0.00000000E+00  0.00000000E+00
  0.00000000E+00  0.00000000E+00  0.00000000E+00
  0.00000000E+00  0.00000000E+00  0.00000000E+00
  0.00000000E+00  0.00000000E+00  0.00000000E+00
  0.00000000E+00  0.00000000E+00  0.00000000E+00
  0.00000000E+00  0.00000000E+00  0.00000000E+00
  0.00000000E+00  0.00000000E+00  0.00000000E+00
  0.00000000E+00  0.00000000E+00  0.00000000E+00
  0.00000000E+00  0.00000000E+00  0.00000000E+00
  0.00000000E+00  0.00000000E+00  0.00000000E+00
  0.00000000E+00  0.00000000E+00  0.00000000E+00
  0.00000000E+00  0.00000000E+00  0.00000000E+00
  0.00000000E+00  0.00000000E+00  0.00000000E+00
  0.00000000E+00  0.00000000E+00  0.00000000E+00
  0.00000000E+00  0.00000000E+00  0.00000000E+00
  0.00000000E+00  0.00000000E+00  0.00000000E+00
  0.00000000E+00  0.00000000E+00  0.00000000E+00
  0.00000000E+00  0.00000000E+00  0.00000000E+00
