F  K  Li Na
 1.0000000000000000
     5.7280283241807828    0.0000000000000000    0.0000000000000000
     0.3744462105572927    5.8781300582363878    0.0000000000000000
     0.7369828587797471    1.8271739263682272    7.8685022761134622
 F   K   Li  Na 
  10   1   6   3
Cartesian
  6.1881534742835633  6.2692141490879409  2.4240063796349034
  4.2129478524485098  1.3523610874204266  4.9072323607460167
  5.6543704174356657  3.5820802325656231  1.6688910354132351
  3.4458916466974592  5.3615148040020557  3.4156882452381612
  3.6180650355639692  5.1222688812025066  0.3492770739658940
  2.4327372271171002  2.2743743343207852  2.0301309327176149
  6.3557398001781999  3.2832740828786426  7.5332254756215828
  3.3349474354458120  4.4015909037386214  6.4196617178284416
  6.2894037858176102  5.0882507880947898  5.1136600501981846
  1.4644303399994287  2.1643786516963455  4.8097968216871454
  1.8478756916864028  6.5327820037352033  7.3519516247189571
  4.6602469721440736  5.2405044946708381  1.9575035797366536
  6.2410773775791979  6.8324399565658123  4.2205766073761994
  1.5492188587628961  3.7220450092072714  5.9377264965203755
  0.6967380481296837  1.8413372647230604  1.3979177886261756
  4.3543017361842944  5.2875677622499477  5.0618609553789007
  2.8277553842428413  1.4010085421527427  3.6453548491670480
  3.8734290427151423  2.9341247941391160  0.5178602146426921
  1.5676510647390602  4.2125630633921025  3.0829555313573609
  4.4245854369809150  2.4926801745997733  6.6722684836907229
