Li2 Mn1 F4
1.0
   3.0512988567352295    0.0000000000000000   -0.9215545654296872
  -0.6091339286391532    4.5892448070674368   -1.9043078422546396
   0.0000000000000000    0.0000000000000000    5.7074103355407715
Li Mn F
2 1 4
direct
   0.0686544254422188    0.1742316931486130    0.7106245160102844 Li
   0.6695784926414490    0.8440327644348145    0.9227906465530396 Li
   0.3699199855327606    0.5106159448623657    0.3173147439956665 Mn
   0.9955621361732483    0.4705248177051545    0.5668176412582397 F
   0.7434315681457520    0.5525363683700562    0.0674493983387947 F
   0.5064315795898438    0.9523686766624451    0.5903367996215820 F
   0.2320907562971115    0.0690709725022316    0.0433012843132019 F
