Na5 Fe2 F11
1.0
   6.1275610923767090    0.0000000000000000    0.6717767119407656
  -3.7842020750689764    4.8525260775639500   -0.6444072723388685
   0.0000000000000000    0.0000000000000000    8.2231616973876953
Na Fe F
5 2 11
direct
   0.8901191949844360    0.9602382779121399    0.7289155125617981 Na
   0.4769050776958466    0.3745825290679932    0.0636475235223770 Na
   0.1475482285022735    0.6317616105079651    0.8948751688003540 Na
   0.1016936227679252    0.8830357193946837    0.3170538842678070 Na
   0.3983469307422638    0.5861677527427673    0.4734770357608795 Na
   0.6503906846046448    0.2886136174201965    0.6167009472846985 Fe
   0.8012323975563049    0.1331179589033127    0.1737679690122604 Fe
   0.7173426747322083    0.5133222341537476    0.8238996863365173 F
   0.0052187833935022    0.3898104429244995    0.6334876418113708 F
   0.1414367705583572    0.2665256559848785    0.2771378755569458 F
   0.7857959270477295    0.6298095583915710    0.5148109197616577 F
   0.5053131580352783    0.9343801140785218    0.7100051641464233 F
   0.9047871828079224    0.4891946017742157    0.1569703668355942 F
   0.6815652251243591    0.7717611193656921    0.1985040456056595 F
   0.2907406091690063    0.1735049486160278    0.5943148732185364 F
   0.0257088746875525    0.1976722776889801    0.9686310291290283 F
   0.4467028677463531    0.9891652464866638    0.0800268128514290 F
   0.5931840538978577    0.0797387138009071    0.3957659304141998 F
