Li4 Fe2 F8
1.0
   4.9716591835021973    0.0000000000000000    1.4443560838699343
   1.3568222807795252    5.1773059201696645    2.9720218181610103
   0.0000000000000000    0.0000000000000000    6.0644469261169434
Li Fe F
4 2 8
direct
   0.1086253151297569    0.0271781105548143    0.9431702494621277 Li
   0.6458965539932251    0.7597667574882507    0.1963945925235748 Li
   0.6454736590385436    0.7586394548416138    0.6972559690475464 Li
   0.1835495680570603    0.4892537593841552    0.4518504142761230 Li
   0.1894448548555374    0.4964171648025512    0.9439985752105713 Fe
   0.0999773889780045    0.0207943692803383    0.4511494934558868 Fe
   0.3586210608482361    0.0969531834125519    0.0955652818083763 F
   0.8923122882843018    0.8726727366447449    0.8317365646362305 F
   0.9462258219718933    0.4175052344799042    0.7966930270195007 F
   0.9016789793968201    0.8728611469268798    0.3308539986610414 F
   0.3986049294471741    0.6448064446449280    0.5631806850433350 F
   0.3896831274032593    0.6430273652076721    0.0630038455128670 F
   0.3448985517024994    0.0983095616102218    0.5995422005653381 F
   0.9307332038879395    0.4192689955234527    0.2991294264793397 F
