K2 S2 O3 F4                             
   1.00000000000000     
     5.6581139811616810    0.0517971933938999    0.2150884031055927
    -3.0207709215128857    4.7863068724752802   -2.5989305252321966
     0.3579624540570341   -0.2493825642852211    7.6849662573507365
   K    S    O    F 
     2     2     3     4
Direct
  0.3507527934127917  0.4157352132043690  0.7689015343552257
  0.8958342835543974  0.4793742597525907  0.2976116501607020
  0.1403627106459940 -0.0248546007454744  0.0430163779079716
  0.6095732866351964  0.9360527258851026  0.4879642690613412
  0.3753096221148842  0.8934727522800276  0.5956657045481477
  0.8657091698689360  0.9347047453637666  0.0497190165186107
  0.8237340471439069  0.9228716738536380  0.5731003380932340
  0.0520501590241873  0.6343012184705242  0.0198119484203781
  0.7824868064674725  0.3220977911186637  0.5876526536567347
  0.2844030428044546  0.1186415516188242  0.2815666944616143
  0.3201681483069702  0.3509132643527296  0.0970835403301884
 
  0.00000000E+00  0.00000000E+00  0.00000000E+00
  0.00000000E+00  0.00000000E+00  0.00000000E+00
  0.00000000E+00  0.00000000E+00  0.00000000E+00
  0.00000000E+00  0.00000000E+00  0.00000000E+00
  0.00000000E+00  0.00000000E+00  0.00000000E+00
  0.00000000E+00  0.00000000E+00  0.00000000E+00
  0.00000000E+00  0.00000000E+00  0.00000000E+00
  0.00000000E+00  0.00000000E+00  0.00000000E+00
  0.00000000E+00  0.00000000E+00  0.00000000E+00
  0.00000000E+00  0.00000000E+00  0.00000000E+00
  0.00000000E+00  0.00000000E+00  0.00000000E+00
