K1 Na1 S2 O6 F2                         
   1.00000000000000     
     5.1137401802730089   -0.0737576330696238   -0.0815406471929469
     0.4108363139982886    5.1074717952676405    0.0441496664100477
    -0.0231276929932807    0.0449933615954218    7.7573559868833986
   K    Na   S    O    F 
     1     1     2     6     2
Direct
  0.7824550279175045  0.7887747183853973  0.0485620248042255
  0.4835663510920703  0.0909637034666182  0.5448673426178566
  0.9582148063187255  0.6189165432737633  0.5795564889758003
  0.2668055808335542  0.3050270324660753  0.1034093436429475
  0.8030721879240846  0.7749071685854642  0.7005290595165298
  0.4143501586751596  0.1600887318742324  0.2391207068451941
  0.3182927423644751  0.5785803632392048  0.0828957108774852
  0.9928943966213538  0.2523453662982775  0.0838354775122169
  0.9050288912756776  0.3446685691533448  0.5702292707726184
  0.2325105238023976  0.6730420163326317  0.5696102628163131
  0.3975180638444263  0.1738267450039990  0.9270172464277932
  0.8319354837222795  0.7423048162377803  0.3942997049984830
 
  0.00000000E+00  0.00000000E+00  0.00000000E+00
  0.00000000E+00  0.00000000E+00  0.00000000E+00
  0.00000000E+00  0.00000000E+00  0.00000000E+00
  0.00000000E+00  0.00000000E+00  0.00000000E+00
  0.00000000E+00  0.00000000E+00  0.00000000E+00
  0.00000000E+00  0.00000000E+00  0.00000000E+00
  0.00000000E+00  0.00000000E+00  0.00000000E+00
  0.00000000E+00  0.00000000E+00  0.00000000E+00
  0.00000000E+00  0.00000000E+00  0.00000000E+00
  0.00000000E+00  0.00000000E+00  0.00000000E+00
  0.00000000E+00  0.00000000E+00  0.00000000E+00
  0.00000000E+00  0.00000000E+00  0.00000000E+00
