Bi1 Pb2 F7
1.0
   4.0978550910949716    0.0000000000000000    0.0021834268700335
  -2.0382779854766677    3.5536485882909314   -0.0179106034338468
   0.0000000000000000    0.0000000000000000   10.4259891510009766
Bi Pb F
1 2 7
direct
   0.9832820296287537    0.7313215136528015    0.4597457647323609 Bi
   0.3219226598739623    0.3906243443489074    0.7722536921501160 Pb
   0.6547320485115051    0.0583364106714725    0.1131112053990364 Pb
   0.9928864240646362    0.7232703566551208    0.6894131898880005 F
   0.3217815756797791    0.3929134905338287    0.4694176018238068 F
   0.3206944763660430    0.3921535909175872    0.0242946855723858 F
   0.6611196398735046    0.0551500320434570    0.5733980536460876 F
   0.9874013066291809    0.7256069183349608    0.2167180180549622 F
   0.6549654603004456    0.0608044490218163    0.3459897935390472 F
   0.6569278836250305    0.0548245757818222    0.8662998676300050 F
