Rb3 Dy1 F6                              
   1.00000000000000     
     6.1927964307323062   -0.0012509250151379    1.1237624270525211
     0.0684259958599708    5.9430499234076679   -0.0392705870712639
    -0.0148582308923981   -0.0144105483539832    6.2939936048838030
   Rb   Dy   F 
     3     1     6
Direct
  0.7604986628020922  0.1732082601423031  0.0004907769026717
  0.7606380762121351  0.6730700426105767  0.5004000607734975
  0.2603091454713117  0.1728570705612767  0.5004521424344921
  0.2608318083257064  0.6732000319335932  0.0003878787831118
  0.4596360696269978  0.9249371527908181  0.8029588254093604
  0.4643162744258041  0.4226493722972667  0.7956174537657276
  0.0357235445543553  0.6752565784418678  0.7743133017459415
  0.0624313730443708  0.4216576260150718  0.1980174387648390
  0.0567227476534004  0.9238421060585922  0.2045889626470578
  0.4861793136497315  0.6715303687296271  0.2262839023857240
 
  0.00000000E+00  0.00000000E+00  0.00000000E+00
  0.00000000E+00  0.00000000E+00  0.00000000E+00
  0.00000000E+00  0.00000000E+00  0.00000000E+00
  0.00000000E+00  0.00000000E+00  0.00000000E+00
  0.00000000E+00  0.00000000E+00  0.00000000E+00
  0.00000000E+00  0.00000000E+00  0.00000000E+00
  0.00000000E+00  0.00000000E+00  0.00000000E+00
  0.00000000E+00  0.00000000E+00  0.00000000E+00
  0.00000000E+00  0.00000000E+00  0.00000000E+00
  0.00000000E+00  0.00000000E+00  0.00000000E+00
