Na2 Li1 Fe1 F6                          
   1.00000000000000     
     5.4851643684210014   -0.0631014624272061   -0.0488749461612801
    -2.7493364719577391    4.1110639338443224   -2.8846168401624865
    -0.0365777258614588   -0.3566848643386904    6.4408412267024691
   Na   Li   Fe   F 
     2     1     1     6
Direct
  0.5467635603948100  0.6698383564078281  0.4671620521036680
  0.0790959535352150  0.7274493362559288  0.1319413491891717
  0.9314152785903530  0.4561617194406043  0.5853710923044709
  0.7303816480145549  0.0104281624517601  0.0519609308576972
  0.5688719790492047  0.9129137894299688  0.2772704311456294
  0.8045904157858906  0.4496011363927580  0.3008654730789690
  0.7126021671201449  0.6109026037394678  0.8152285576732541
  0.0981130873659216  0.2054474538915440  0.2873708766889868
  0.3367951943096767  0.7968256378994381  0.8356307507957165
  0.8952576643601341  0.1596950366645688  0.8618785863947985
 
  0.00000000E+00  0.00000000E+00  0.00000000E+00
  0.00000000E+00  0.00000000E+00  0.00000000E+00
  0.00000000E+00  0.00000000E+00  0.00000000E+00
  0.00000000E+00  0.00000000E+00  0.00000000E+00
  0.00000000E+00  0.00000000E+00  0.00000000E+00
  0.00000000E+00  0.00000000E+00  0.00000000E+00
  0.00000000E+00  0.00000000E+00  0.00000000E+00
  0.00000000E+00  0.00000000E+00  0.00000000E+00
  0.00000000E+00  0.00000000E+00  0.00000000E+00
  0.00000000E+00  0.00000000E+00  0.00000000E+00
