Rb3 Li2 F5                              
   1.00000000000000     
     5.9337316410007857   -0.0257377983594243    0.0279632480273356
    -2.9163307576098267    5.3106252842248534   -1.5881319808490058
    -0.0103442285511161   -0.0295074358062809    5.6062049487336312
   Rb   Li   F 
     3     2     5
Direct
  0.5309181073821029  0.4727320100315934  0.5911910730073843
  0.7687361841713749  0.9485130870774757  0.2781019580881707
  0.0070671048617895  0.4248175481720807  0.9658805830345751
  0.3339530537950789  0.0791060933453781 -0.0001844873134700
  0.2049447967742184  0.8190021232453339  0.5578809431580397
  0.5079955640703672  0.9500114996789086  0.7768460260103832
  0.0303649966103618  0.9491865305790749  0.7815790240023420
  0.0291606915773168  0.4659918849227674  0.4771031243355928
  0.2675880923374909  0.9488631857477886  0.2790931489748453
  0.5100536033770358  0.4316974431110438  0.0800727874935147
 
  0.00000000E+00  0.00000000E+00  0.00000000E+00
  0.00000000E+00  0.00000000E+00  0.00000000E+00
  0.00000000E+00  0.00000000E+00  0.00000000E+00
  0.00000000E+00  0.00000000E+00  0.00000000E+00
  0.00000000E+00  0.00000000E+00  0.00000000E+00
  0.00000000E+00  0.00000000E+00  0.00000000E+00
  0.00000000E+00  0.00000000E+00  0.00000000E+00
  0.00000000E+00  0.00000000E+00  0.00000000E+00
  0.00000000E+00  0.00000000E+00  0.00000000E+00
  0.00000000E+00  0.00000000E+00  0.00000000E+00
