K1 H1 F2                                
   1.00000000000000     
     3.4625201136278640   -0.0017582336655629    0.0182555494066804
     0.0060807786597187    3.4684359078199671    0.0059567137838064
     0.0005920741040229   -0.0069234249362548    5.0590792006411496
   K    H    F 
     1     1     2
Direct
  0.8577788865007590  0.8384266489576205  0.3135015880237557
  0.3563790032626650  0.3376431720538107  0.8134165927598725
  0.3554178859880838  0.3387662368706821  0.5856718420048318
  0.3581751097350949  0.3383712918951085  0.0406345512409857
 
  0.00000000E+00  0.00000000E+00  0.00000000E+00
  0.00000000E+00  0.00000000E+00  0.00000000E+00
  0.00000000E+00  0.00000000E+00  0.00000000E+00
  0.00000000E+00  0.00000000E+00  0.00000000E+00
