F  La Na Zn
 1.0000000000000000
     5.2019934533995729    0.0000000000000000    0.0000000000000000
    -0.0105063366200092    5.2031827532087718    0.0000000000000000
    -0.0063071078195906    0.0026884125779092   10.4822679985606229
 F   La  Na  Zn 
  12   2   2   2
Cartesian
  0.9857552029638214  0.1351243377614001  8.6305454955626253
  2.8925772607091922  3.4295897403502944  8.6370689473780491
  3.0717460558123930  3.2461071146164868  1.8472832006312181
  0.9757228800869001  0.1482897465293695  5.4646845269652973
  0.8047474956469255  0.3205464852839388  1.8494304540577731
  2.9008199125196774  3.4177710124928269  5.4683170668422134
  0.3074471105584320  2.7504072577098722  0.2249529511148489
  3.5749947176904033  0.8155689379056523  0.2294619177740736
  3.5808575757389711  0.8232472657619428  3.3974709988867646
  0.2945232851696879  2.7377705668393078  3.3908054069230773
  3.4036242900195965  0.6417660183876810  7.0831116236301739
  0.4762998871965570  2.9212643887997194  7.0862968125349761
  4.5384385488747618  1.7826143090969451  8.7829559724279687
  1.9339737926987945  4.3849158334475904  3.5340686185548496
  1.9367932647047790  4.3854190576801155  0.0764034731751596
  4.5415752745795537  1.7813651439607034  5.3132843385383728
  1.9367996819587443  4.3819964837766063  7.0418091329003145
  4.5377792190291917  1.7859362215619559  1.8071821846490901
