Y3 F9                                   
   1.00000000000000     
     4.3707489630813798   -0.0106677520934931    0.0131926779364205
     0.0167791083529476    7.2112876432887214    0.0383494048503943
    -0.0018831508954306   -0.0183894566260218    8.7112746558067720
   Y    F 
     3     9
Direct
  0.2926050934162451  0.4142567798150467  0.9161743828167408
  0.2944862653180303  0.4163868365273494  0.4193916234869199
  0.2937439994088229  0.9156125799429879  0.6681704078019418
  0.2929582182673568  0.1190217371177906  0.8573844813775918
  0.2981495966721313  0.7112300999743061  0.4796877785611766
  0.2933645408941769  0.4168460837677530  0.1676951345777448
  0.7937511837289800  0.9166801303705912  0.6675923984378465
  0.2929722704772779  0.7096639974920866  0.8568957222719426
  0.7945476215445220  0.4167322114344663  0.4078601361050661
  0.2926040431302378  0.4149345111317834  0.6677438036494867
  0.2966343002363986  0.1209096588553815  0.4793585046282072
  0.7926312995897647  0.4130630705399669  0.9286058529641834
 
  0.00000000E+00  0.00000000E+00  0.00000000E+00
  0.00000000E+00  0.00000000E+00  0.00000000E+00
  0.00000000E+00  0.00000000E+00  0.00000000E+00
  0.00000000E+00  0.00000000E+00  0.00000000E+00
  0.00000000E+00  0.00000000E+00  0.00000000E+00
  0.00000000E+00  0.00000000E+00  0.00000000E+00
  0.00000000E+00  0.00000000E+00  0.00000000E+00
  0.00000000E+00  0.00000000E+00  0.00000000E+00
  0.00000000E+00  0.00000000E+00  0.00000000E+00
  0.00000000E+00  0.00000000E+00  0.00000000E+00
  0.00000000E+00  0.00000000E+00  0.00000000E+00
  0.00000000E+00  0.00000000E+00  0.00000000E+00
