K4 Dy1 F6
1.0
   5.6409769058227530    0.0000000000000000    2.8887362480163588
  -2.1015621924619001    6.0439764137711371    1.2927253246307375
   0.0000000000000000    0.0000000000000000    6.3638143539428711
K Dy F
4 1 6
direct
   0.7669055461883545    0.4594775438308716    0.5244958400726318 K
   0.4487670063972473    0.4593411386013030    0.2058140486478806 K
   0.9270142912864685    0.9585379362106323    0.6833922266960144 K
   0.2886015176773071    0.9591175317764281    0.0472864657640457 K
   0.1077891141176224    0.4598315358161926    0.8656011223793030 Dy
   0.7426021695137024    0.2407870888710022    0.9274705648422241 F
   0.1722455173730850    0.6790140867233276    0.4999881982803345 F
   0.4728218317031860    0.6767157912254333    0.8033784031867981 F
   0.0461907722055912    0.2417387664318085    0.2303107082843781 F
   0.3002098798751830    0.2488902956247329    0.6728805303573608 F
   0.9155799746513367    0.6691332459449768    0.0585465990006924 F
