Sr F  Cs F  Cs F                                                                                    
 1.000
    5.7997236048256298    0.0000000000000000    0.0000000000000000
    2.8673231049786048    6.7531466223848664    0.0000000000000000
    2.8518891479498203    3.6169366090803381    7.9708697331962375
   Cs   F    Sr
    4    6    1
Direct
    0.3829345405101777    0.1697890758514404    0.5359606742858887     Cs1
    0.7377569675445557    0.1409498155117035    0.8639612793922424     Cs2
    0.4174689352512360    0.6404176950454712    0.0037184930406511     Cs3
    0.0597125329077244    0.1470821499824524    0.2066061645746231     Cs4
    0.2889382541179658    0.6579604148864746    0.3429066240787506      F1
    0.5915622115135192    0.0616430304944515    0.2349427342414856      F2
    0.8550553321838374    0.2804074585437774    0.4953564405441284      F3
    0.8693255186080933    0.6514485478401184    0.1044898703694344      F4
    0.5763528943061829    0.6761150956153869    0.6450526118278503      F5
    0.2466562092304229    0.1005457490682601    0.8881648182868958      F6
    0.6855571269989015    0.6672068238258362    0.3742368519306183     Sr1
