F  B  F  Na F  Na B  F  B                                                                           
 1.000
    6.2307707575770488    0.0000000000000000    0.0000000000000000
   -0.0071434846811009    4.8712949843962772    0.0000000000000000
    3.0936790905556117    2.3758109471192381    7.3272293891976874
   B    F    Na
    3   12    3
Direct
    0.8753694891929629    0.9354780912399291    0.1251768469810486      B1
    0.2101052552461624    0.2677463293075562    0.4542979300022125      B2
    0.5431652665138244    0.5994818210601807    0.7906693220138550      B3
    0.0226439833641051    0.3811675012111663    0.5688297748565676      F1
    0.3986274003982544    0.4914878904819490    0.3434500396251678      F2
    0.3532426953315735    0.7145565152168276    0.9057334661483765      F3
    0.9526183605194091    0.7117303609848021    0.2370966970920563      F4
    0.2868731617927550    0.0424404330551625    0.5684148669242859      F5
    0.6861840486526487    0.0480424650013447    0.2373986244201660      F6
    0.6207398772239683    0.3762971460819244    0.9010748863220216      F7
    0.1336949616670608    0.1559628248214722    0.3417027890682220      F8
    0.4663025438785553    0.4889644086360930    0.6755607724189758      F9
    0.8006758093833923    0.8226145505905149    0.0100932922214270     F10
    0.7306704521179197    0.8256649374961853    0.6798786520957947     F11
    0.0643201991915703    0.1622108072042465    0.0117944180965424     F12
    0.0419281832873821    0.5998731851577757    0.7918415069580078     Na1
    0.3779810965061187    0.9361799359321595    0.1222935914993286     Na2
    0.7132666110992432    0.2700812816619873    0.4580930769443512     Na3
