K2 Nd3 Ag1 F12
1.0
   5.9303469657897949    0.0000000000000000    2.5025267601013184
  -0.4647205278537952    7.5004403948250857    0.5115534663200360
   0.0000000000000000    0.0000000000000000    6.9556341171264648
K Nd Ag F
2 3 1 12
direct
   0.9134759902954102    0.3226268589496613    0.7290968298912048 K
   0.5425077676773071    0.8036780357360840    0.4905090034008026 K
   0.1586387902498245    0.5671315193176270    0.1853477954864502 Nd
   0.6160404682159424    0.2951265275478364    0.3300167024135590 Nd
   0.3161731064319611    0.0502136759459972    0.0493767298758030 Nd
   0.8870806694030762    0.8259368538856507    0.9132769107818604 Ag
   0.4431901276111603    0.3643456697463989    0.0473254136741161 F
   0.6920374631881714    0.0947553813457489    0.0532476976513862 F
   0.3261873126029968    0.0921424776315689    0.3851252794265747 F
   0.1280193030834198    0.0869036093354225    0.8387171626091003 F
   0.5853866934776306    0.1424872875213623    0.6555490493774414 F
   0.0071597816422582    0.2476623058319092    0.2422899603843689 F
   0.3049958646297455    0.4803884029388428    0.4455620646476746 F
   0.4526780843734741    0.7764245271682740    0.1602754145860672 F
   0.2878324687480927    0.7560505270957948    0.8770624399185181 F
   0.7925707101821899    0.5138307809829713    0.4625250399112701 F
   0.0034730352926999    0.8491840362548829    0.2554791867733002 F
   0.8681296110153198    0.5192595720291138    0.0546000748872757 F
