Cl F  In K 
 1.0000000000000000
     4.2174382668788652    0.0000000000000000    0.0000000000000000
    -0.0068535345069057    6.7333254329921512    0.0000000000000000
     0.0010037190764985   -1.1424510547350375    6.7065388539032815
 Cl  F   In  K  
   2   3   1   2
Cartesian
  2.9623018938071648  5.6581085438060228  3.0909516756966657
  2.9628713178691681  3.2916212451430265  0.3034294254142931
  2.9556866883138273 -1.0512579447809325  6.3691411735737562
  2.9727508477563127  2.1233786687484688  3.7356043764800830
  0.8556633677054848  0.5367690754737559  5.0501530139976927
  2.9671955107412371  0.5397070408460259  5.0478996747357172
  0.8545177627037963  3.9101734987221501  5.0512706894591943
  0.8551909568569358  1.1012033120559050  1.6899956521829851
