Rb2 Sm1 Dy1 F8
1.0
   5.5777401924133301    0.0000000000000000    0.0091856131330131
  -0.0005615200128457    5.5723828986491855    0.0036054677329966
   0.0000000000000000    0.0000000000000000    6.5930438041687012
Rb Sm Dy F
2 1 1 8
direct
   0.9537025094032289    0.9378688931465149    0.3642374873161316 Rb
   0.4535864591598511    0.4377593100070953    0.3638537824153900 Rb
   0.4538065493106843    0.9380717277526855    0.8639686703681946 Sm
   0.9542673826217652    0.4378520250320435    0.8641474246978760 Dy
   0.7077353596687317    0.6836990118026733    0.0598421208560467 F
   0.7072873711585999    0.1918287277221680    0.0590002276003361 F
   0.7079625129699707    0.1918695420026779    0.6694967746734619 F
   0.7079346179962158    0.6837964057922363    0.6699820160865784 F
   0.1991369128227234    0.6836428642272949    0.0589414462447166 F
   0.1989245414733887    0.1919035762548447    0.0578485503792763 F
   0.1999965906143189    0.6838625073432922    0.6691094636917114 F
   0.1998287439346314    0.1917313784360886    0.6683947443962097 F
