Cs3 Bi1 F6                              
   1.00000000000000     
     6.3413218573241918    0.0576361144832830    3.7228746481701784
    -2.0405140618861575    5.9942795831077946   -3.7034196295875779
     0.0111531128995402    0.0122540894941622    7.4292394663940673
   Cs   Bi   F 
     3     1     6
Direct
  0.9695030554592807  0.5192898717986445  0.2404787215187509
  0.2196882954927680  0.2696123063828675  0.4900007039513529
  0.7194251625306157  0.7694466151533036  0.9910340029402684
  0.4694760644229167  0.0190419721569121  0.7400438904563533
  0.6968106566325435  0.7921938809108859  0.5106981125783822
  0.4682446820799847  0.0172579908381279  0.0454282073282199
  0.7757271197935871  0.3248357965556999  0.7400015243284601
  0.4708325560219656  0.0211402879107682  0.4353824442904301
  0.1628017474477355  0.7137614423254000  0.7407281597727108
  0.2434832938189735  0.2468265575444387  0.9654073284201792
 
  0.00000000E+00  0.00000000E+00  0.00000000E+00
  0.00000000E+00  0.00000000E+00  0.00000000E+00
  0.00000000E+00  0.00000000E+00  0.00000000E+00
  0.00000000E+00  0.00000000E+00  0.00000000E+00
  0.00000000E+00  0.00000000E+00  0.00000000E+00
  0.00000000E+00  0.00000000E+00  0.00000000E+00
  0.00000000E+00  0.00000000E+00  0.00000000E+00
  0.00000000E+00  0.00000000E+00  0.00000000E+00
  0.00000000E+00  0.00000000E+00  0.00000000E+00
  0.00000000E+00  0.00000000E+00  0.00000000E+00
