F  Na Rb
 1.0000000000000000
     6.6481851405895522    0.0000000000000000    0.0000000000000000
     2.2146556544522906    7.4121702997607359    0.0000000000000000
    -2.3155176726900693   -1.3429980487534376    8.2537999063194363
 F   Na  Rb 
  10   3   7
Cartesian
  4.1902043228710379  0.3676138895496551  7.0159027968062686
  4.5325400332083570  4.1238415489699980  0.1877908092247329
  0.8258961389363334  3.1447627186737233  2.0271469092123575
  1.1736912929814856  1.5237030244737217  5.2836902679606075
  3.5009191036655247  0.6847773437399320  0.3964860334791616
  5.2795745216687360  3.8063598113532930  6.6594162390533391
  5.5946171564085141  5.7685974417918624  3.6786690915586449
  2.0298556992364936  4.6864945718465227  5.2620625109190566
  4.5858419522182707  2.3169969225758136  3.6053053310139891
 -0.0734526662992674 -0.2769219508855670  1.8805490208508655
  5.5566255413954941  1.9399127520775352  1.0929389398682821
  3.1802669815801150  2.6098610377127840  6.1698458203274100
  6.5461514179308455  3.5391994658277497  4.4234460102487683
  5.5127729042914915 -0.0550025689526306  4.4638648552289730
  4.3207082022381584  6.2994707916472832  6.0713746356297218
 -0.1361865738228086  1.5995161542804697  7.7335431824784822
  6.6319455160796794  5.5830119778301386  1.1140678445910088
  2.2455655752580883  0.9422973478268004  2.8385161847821561
  3.2657356812179459  4.5244684871124425  2.7951603098775171
  0.9789605787773162  5.2698522917501354  7.7036887898596405
