Al1 H3 O1 F4
1.0
   4.8239483833312988    0.0000000000000000    0.7560094594955443
  -0.8431393489560787    4.4570206333291162   -1.5975550413131707
   0.0000000000000000    0.0000000000000000    5.6418347358703613
Al H O F
1 3 1 4
direct
   0.8681469559669495    0.6819851398468018    0.0019467956153676 Al
   0.2866846621036530    0.1916664093732834    0.6864901781082153 H
   0.3474676311016083    0.4828846156597137    0.0653507411479950 H
   0.2204109430313110    0.0304050091654062    0.4164715707302093 H
   0.3652702569961548    0.0499848499894142    0.5305595993995667 O
   0.8273901343345642    0.7007919549942017    0.7284760475158691 F
   0.1346526592969894    0.4702541828155518    0.9639636278152466 F
   0.5550867915153505    0.4641860425472260    0.1126949191093445 F
   0.9658603072166443    0.9981811642646790    0.2328260242938995 F
