Cs2 Fe1 F5                              
   1.00000000000000     
     5.1962760703042656    0.1569710393973520   -3.1431292487813782
     0.0384850577037368    5.3077029909586928    0.0296482670796898
    -0.0304381635328575   -0.0075585458188668    6.3631184445101967
   Cs   Fe   F 
     2     1     5
Direct
  0.8875290118663623  0.3598178448602148  0.6285243241176039
  0.2482944381280329  0.9260454217181715  0.3084948484241411
  0.5287362003413779  0.6591694223852681  0.9489511418256886
  0.2365627400448920  0.8615879872122340  0.8036155025356856
  0.3984771983786205  0.4507521710399399  0.0947166330987854
  0.7144987418888696  0.8200617971872938  0.8346680561611249
  0.3980697284628938  0.4530985930329516  0.6740100043999409
  0.7150421556230282  0.8195367920610738  0.2473245525655013
 
  0.00000000E+00  0.00000000E+00  0.00000000E+00
  0.00000000E+00  0.00000000E+00  0.00000000E+00
  0.00000000E+00  0.00000000E+00  0.00000000E+00
  0.00000000E+00  0.00000000E+00  0.00000000E+00
  0.00000000E+00  0.00000000E+00  0.00000000E+00
  0.00000000E+00  0.00000000E+00  0.00000000E+00
  0.00000000E+00  0.00000000E+00  0.00000000E+00
  0.00000000E+00  0.00000000E+00  0.00000000E+00
