Mg2 Fe2 F8                              
   1.00000000000000     
     3.0692265614083256   -0.0038498200733818    0.0086059873561663
     0.0106794339138292    4.6498249291727509    0.0511630068811251
    -0.0227376835528245   -0.0337100288452690    9.2790669486168564
   Mg   Fe   F 
     2     2     8
Direct
  0.7004811960879119  0.3104936253310691  0.8947895596255960
  0.7005044119607187  0.3104107498939912  0.3947737173325816
  0.2007371017494980  0.8105739161650479  0.6448112749664890
  0.2005499851762066  0.8102464514235155  0.1447946822338468
  0.7011805708051377  0.6167360158159603  0.0485435043069607
  0.6998676928916588  0.0032650515186444  0.2414101392912640
  0.2004634824621990  0.1146654315117439  0.4931552342683511
  0.7012020806084384  0.6175825107773989  0.5481423775588022
  0.2003850354367728  0.1137122218927701  0.9928328709201981
  0.7004262877635112  0.0030321992346571  0.7416491797190492
  0.2002182809684573  0.5063628645320685  0.2963146721045930
  0.2003049824307067  0.5069426309299255  0.7966461420571671
 
  0.00000000E+00  0.00000000E+00  0.00000000E+00
  0.00000000E+00  0.00000000E+00  0.00000000E+00
  0.00000000E+00  0.00000000E+00  0.00000000E+00
  0.00000000E+00  0.00000000E+00  0.00000000E+00
  0.00000000E+00  0.00000000E+00  0.00000000E+00
  0.00000000E+00  0.00000000E+00  0.00000000E+00
  0.00000000E+00  0.00000000E+00  0.00000000E+00
  0.00000000E+00  0.00000000E+00  0.00000000E+00
  0.00000000E+00  0.00000000E+00  0.00000000E+00
  0.00000000E+00  0.00000000E+00  0.00000000E+00
  0.00000000E+00  0.00000000E+00  0.00000000E+00
  0.00000000E+00  0.00000000E+00  0.00000000E+00
