K1 Na1 Mg2 B1 P2 H1 O8 F4
1.0
   5.1489591598510742    0.0000000000000000    0.8176758885383613
  -2.2406685179430519    4.8801866177397484    0.9439991712570197
   0.0000000000000000    0.0000000000000000   10.8960609436035156
K Na Mg B P H O F
1 1 2 1 2 1 8 4
direct
   0.6195858716964722    0.5094512701034546    0.7302983999252319 K
   0.1292369067668915    0.2361982464790344    0.0832033678889275 Na
   0.9018839001655580    0.8759105801582336    0.3795481622219086 Mg
   0.0288910791277885    0.3288740515708923    0.4994215369224549 Mg
   0.1702245175838470    0.8535421490669249    0.8467785120010376 B
   0.3411301076412201    0.8867534399032593    0.5808480381965637 P
   0.4095233082771302    0.7724980711936951    0.2285190522670746 P
   0.4196303188800811    0.8314892053604125    0.0289508383721113 H
   0.3572885394096375    0.9717463850975038    0.7126566171646118 O
   0.2614212036132812    0.4942855238914490    0.3242082297801971 O
   0.6553947925567627    0.9864032864570617    0.5108736753463745 O
   0.1764398366212845    0.0243034679442644    0.5108894705772400 O
   0.4417549073696137    0.6984257102012634    0.0927775204181671 O
   0.1931668370962143    0.5748752355575562    0.6109262108802795 O
   0.2299037128686905    0.9385191798210143    0.2324952185153961 O
   0.7091159224510193    0.9332033991813660    0.2419326454401016 O
   0.1233000084757805    0.5733333230018616    0.8990627527236938 F
   0.7709351778030396    0.5085913538932800    0.4786803424358368 F
   0.9092735052108766    0.8759554624557496    0.8507292866706848 F
   0.3091038763523102    0.0199409760534763    0.9288273453712463 F
