Li6 F6
1.0
   3.0704705715179443    0.0000000000000000   -0.0023097752127795
   0.0062967943001531    5.1746706798324178    1.2653452157974250
   0.0000000000000000    0.0000000000000000    7.5947141647338867
Li F
6 6
direct
   0.9087949395179749    0.8933894038200378    0.4746352434158326 Li
   0.4086469113826752    0.3926572501659393    0.4734296202659607 Li
   0.9086751937866211    0.4463830590248107    0.8044212460517883 Li
   0.4073973894119263    0.9476987719535827    0.8062656521797180 Li
   0.9072023034095764    0.6709325909614562    0.1412827670574188 Li
   0.4085760712623596    0.1724684387445450    0.1422178596258164 Li
   0.4098954498767853    0.4784409105777740    0.2213561683893204 F
   0.9070712327957153    0.7532639503479003    0.8837844729423523 F
   0.9092751145362854    0.5339491367340087    0.5513626337051392 F
   0.4077387750148773    0.2542363703250885    0.8874385952949524 F
   0.4073435962200165    0.0328376665711403    0.5551669001579285 F
   0.9085906147956848    0.9767529964447020    0.2203453779220581 F
