K2 H6 F8                                
   1.00000000000000     
     5.2102098320197445    0.0866050570218670    0.5625940280103020
    -1.4986473948349814    6.3714895363320174   -0.1436001544569885
    -0.0597733944372021   -0.0190271576150979    6.1240236346340975
   K    H    F 
     2     6     8
Direct
  0.3407497159229310  0.5444040257559307  0.8269478227707212
  0.0825396295217311  0.0249064332420233  0.3373331049825218
  0.7612883182829875  0.2604125566188040  0.0463886840281631
  0.8904707341788501  0.4896819346941719  0.4578613968855682
  0.5438693100575779  0.7172082088990996  0.3109724716240380
  0.5707547125306418  0.4165425350986163  0.2643729740707739
  0.8591679867445218  0.8465757915876850  0.8331288611259843
  0.5636496130344927  0.0504079068482787  0.6744804642250918
  0.9418653737296221  0.2420864434218009  0.0114136171538361
  0.5093471818825518  0.3089234150120962  0.1353090710658411
  0.0503888931653205  0.4427299612649754  0.4869235311334021
  0.9627247431711050  0.7774253243090545  0.9326887148740305
  0.4472504504633814  0.1527544115088804  0.6496423592680139
  0.7129903309454175  0.9056838449139473  0.6867479497520320
  0.4639074093142357  0.8117835476375046  0.2306637171792906
  0.6530817648604242  0.5511002543117325  0.4013687693619106
 
  0.00000000E+00  0.00000000E+00  0.00000000E+00
  0.00000000E+00  0.00000000E+00  0.00000000E+00
  0.00000000E+00  0.00000000E+00  0.00000000E+00
  0.00000000E+00  0.00000000E+00  0.00000000E+00
  0.00000000E+00  0.00000000E+00  0.00000000E+00
  0.00000000E+00  0.00000000E+00  0.00000000E+00
  0.00000000E+00  0.00000000E+00  0.00000000E+00
  0.00000000E+00  0.00000000E+00  0.00000000E+00
  0.00000000E+00  0.00000000E+00  0.00000000E+00
  0.00000000E+00  0.00000000E+00  0.00000000E+00
  0.00000000E+00  0.00000000E+00  0.00000000E+00
  0.00000000E+00  0.00000000E+00  0.00000000E+00
  0.00000000E+00  0.00000000E+00  0.00000000E+00
  0.00000000E+00  0.00000000E+00  0.00000000E+00
  0.00000000E+00  0.00000000E+00  0.00000000E+00
  0.00000000E+00  0.00000000E+00  0.00000000E+00
