Sr2 Li1 Mg1 F7
1.0
   3.9942355155944829    0.0000000000000000    0.0065868906676769
  -0.0087129357895738    6.3942077402039317   -2.6114065647125235
   0.0000000000000000    0.0000000000000000    6.3034920692443848
Sr Li Mg F
2 1 1 7
direct
   0.9132046699523927    0.7388727068901062    0.0578345991671086 Sr
   0.4122764468193054    0.2389703392982483    0.0594061762094498 Sr
   0.9127894043922425    0.2390022575855255    0.5589307546615602 Li
   0.4128325581550598    0.7387703657150269    0.5589788556098938 Mg
   0.9135490655899049    0.3556119799613952    0.8935696482658387 F
   0.9121909141540528    0.7389701604843140    0.5603080987930298 F
   0.4122021794319153    0.8439712524414062    0.9039682149887086 F
   0.9122567176818849    0.1229225173592567    0.2243981063365937 F
   0.4130928516387939    0.0478203892707825    0.6018154621124268 F
   0.4126605391502380    0.6350857019424438    0.2147045284509659 F
   0.4122855961322784    0.4296129643917083    0.5166746377944946 F
