K3 In1 F6
1.0
   5.7315735816955566    0.0000000000000000   -2.0979647636413565
  -1.4037231532630290    5.2379781340380376   -2.7681655883789045
   0.0000000000000000    0.0000000000000000    7.0563116073608398
K In F
3 1 6
direct
   0.1956818997859955    0.2192105948925018    0.9092204570770264 K
   0.6336351037025452    0.6543373465538025    0.9099509716033936 K
   0.9136629700660707    0.4369737505912781    0.4094215631484986 K
   0.4138098657131196    0.9368873238563538    0.4093735218048096 In
   0.0749335363507271    0.6691352128982544    0.1653223782777787 F
   0.3840498030185699    0.8403070569038391    0.6525852084159851 F
   0.2616506814956665    0.2468843460083008    0.5606259107589722 F
   0.5650882720947266    0.6269475221633911    0.2576678991317750 F
   0.7534139156341553    0.2038144022226334    0.6533335447311401 F
   0.4455190896987916    0.0339793637394905    0.1670975089073181 F
