P2 Pb1 O1 F10
1.0
   5.1004848480224609    0.0000000000000000   -1.7554640769958498
  -0.6006145119720052    5.0586378181634579   -1.7225308418273928
   0.0000000000000000    0.0000000000000000    8.2275238037109375
P Pb O F
2 1 1 10
direct
   0.1640990823507309    0.2258996069431305    0.5406612157821655 P
   0.3899750709533691    0.4488283097743989    0.9937781095504761 P
   0.7765799760818481    0.8377509117126465    0.7676312923431396 Pb
   0.2766568958759308    0.3370452523231507    0.7671662569046021 O
   0.1712607741355896    0.6707227826118469    0.9954199790954590 F
   0.1730678230524063    0.2308254837989807    0.9972180724143982 F
   0.3834035396575928    0.0041234381496906    0.5395064949989319 F
   0.6112473607063293    0.2301785349845886    0.9967174530029297 F
   0.6111349463462830    0.6710399389266968    0.9953200221061707 F
   0.3816414177417755    0.4447849690914155    0.5365445017814636 F
   0.9432615637779236    0.4451133012771606    0.5383511185646057 F
   0.0509960204362869    0.1115336045622826    0.3155056834220886 F
   0.5026003122329712    0.5633659362792969    0.2193494290113449 F
   0.9433904886245728    0.0047628637403250    0.5403578877449036 F
