Li3 Dy2 Tl3 F12
1.0
   6.2543721199035645    0.0000000000000000   -1.2554619312286390
   0.6278881682460165    7.2497155131428093    1.0026806592941280
   0.0000000000000000    0.0000000000000000    7.2261009216308594
Li Dy Tl F
3 2 3 12
direct
   0.1600384563207626    0.0864889845252037    0.4707941114902496 Li
   0.5490669012069702    0.7768635153770446    0.3482380807399750 Li
   0.9553010463714598    0.6184393167495728    0.7875928878784180 Li
   0.5121057629585266    0.8012345433235167    0.7895858883857727 Dy
   0.6233237385749817    0.2879044413566589    0.5713126659393311 Dy
   0.1154404208064079    0.0514915771782398    0.9904842972755434 Tl
   0.0446673296391964    0.5651102662086486    0.3482443094253540 Tl
   0.5852160453796387    0.2943903803825378    0.0755577981472015 Tl
   0.1926328390836716    0.7470042109489441    0.8456909060478210 F
   0.7405401468276978    0.7607877850532531    0.5898984670639038 F
   0.9209291338920592    0.3817789852619171    0.7210152149200439 F
   0.3217993378639221    0.8536905646324158    0.4762684702873230 F
   0.4709768891334533    0.5006479620933532    0.7118073701858521 F
   0.5120665431022644    0.8844452500343322    0.0863019824028015 F
   0.6067340373992919    0.5202842354774475    0.3389697074890137 F
   0.3402642309665680    0.1044991016387939    0.7134019136428833 F
   0.8613853454589844    0.1776149868965149    0.4099343121051788 F
   0.3346348106861115    0.2497431039810180    0.3500312268733978 F
   0.7957575321197510    0.6296494007110596    0.9798932075500488 F
   0.7406508326530457    0.0368542596697807    0.7902424931526184 F
