Na3 Ca2 Al2 F13                         
   1.00000000000000     
     5.4090001519672244   -0.2515891739139342    0.5616395343057202
     1.8791658600526466    5.4689356412475787    0.2915150866931466
    -0.0136819633486949   -0.1683620428456385    9.0580757129214273
   Na   Ca   Al   F 
     3     2     2    13
Direct
  0.5537374330561042  0.1336920686469126  0.4984034328770512
  0.8164754724233443  0.5665892857500978  0.4164203498449948
  0.7290675103979365  0.8252027916818412  0.8758402547755485
  0.1696069047184356  0.9787404477578328  0.2159367515487682
  0.0980686190840792  0.2485177030578534  0.8056815201402372
  0.5950054339259070  0.3196759662308204  0.0958743443009004
  0.2764027037177559  0.7066577052156831  0.6359513382100677
  0.9764000382410115  0.9606907648519964  0.6678818550379670
  0.1818535114637062  0.6098930489967470  0.8221829616939741
  0.3775103870578986  0.6146638636591019  0.1265892856179051
  0.8351223971932518  0.3666796948636050  0.2099406483600645
  0.5824664591509441  0.4720358360706051  0.6204096387257971
  0.4290159865335595  0.9246295618308733  0.7129703493604473
  0.3885124399513292  0.1793103912715687  0.9902521085454110
  0.4360448856944053  0.2061769239407412  0.2571797194885297
  0.1341608323428428  0.4721272067019310  0.5744637867243351
  0.8728643449306509  0.9063005158612903  0.3623178361905771
  0.8660500113024084  0.0389491055857196  0.0349539242501716
  0.7254164808687019  0.4462743629109585  0.9276500502030522
  0.3576986215237044  0.8137392729329872  0.4523462230028214
 
  0.00000000E+00  0.00000000E+00  0.00000000E+00
  0.00000000E+00  0.00000000E+00  0.00000000E+00
  0.00000000E+00  0.00000000E+00  0.00000000E+00
  0.00000000E+00  0.00000000E+00  0.00000000E+00
  0.00000000E+00  0.00000000E+00  0.00000000E+00
  0.00000000E+00  0.00000000E+00  0.00000000E+00
  0.00000000E+00  0.00000000E+00  0.00000000E+00
  0.00000000E+00  0.00000000E+00  0.00000000E+00
  0.00000000E+00  0.00000000E+00  0.00000000E+00
  0.00000000E+00  0.00000000E+00  0.00000000E+00
  0.00000000E+00  0.00000000E+00  0.00000000E+00
  0.00000000E+00  0.00000000E+00  0.00000000E+00
  0.00000000E+00  0.00000000E+00  0.00000000E+00
  0.00000000E+00  0.00000000E+00  0.00000000E+00
  0.00000000E+00  0.00000000E+00  0.00000000E+00
  0.00000000E+00  0.00000000E+00  0.00000000E+00
  0.00000000E+00  0.00000000E+00  0.00000000E+00
  0.00000000E+00  0.00000000E+00  0.00000000E+00
  0.00000000E+00  0.00000000E+00  0.00000000E+00
  0.00000000E+00  0.00000000E+00  0.00000000E+00
