F  Li Zn
 1.0000000000000000
     3.5879177991559987    0.0000000000000000    0.0000000000000000
    -1.7881435828582186    5.4695024017134228    0.0000000000000000
    -0.0055324920509057   -0.3733904241392674    7.6010518676867944
 F   Li  Zn 
   7   3   2
Cartesian
 -0.3062028500257610  3.2481445731232648  2.1757741039299137
 -0.1946514022269801  2.1125174612141975  4.5389715051389476
 -0.3261596170486706  1.5366162386778712  7.4300202087207845
  1.4811059974393461  0.8171028563167296  1.8946155989954159
  1.4925709505173743  4.8610880405164227  4.1042002885585953
  1.4859293891952052  4.1657628165581384  0.1842099692809327
  1.4781865567523671 -0.2528757757337687  6.2926987528490086
 -0.3071195822259234  1.3835150895253030  2.7964943670687994
  1.4713372147856960  2.2560232587949143  0.5737326555743750
 -0.2969180084124664  3.9147207684765766  3.9819833634247002
  3.2749475199274425  0.5610483297575594  5.7218008245264382
 -0.3108834462481082  4.6600160774034158  0.7645227967221818
