K1 Rb1 Na1 Cr1 F6
1.0
   5.2080140113830558    0.0000000000000000    3.0010371208190931
  -1.7357464958312929    4.9061197527986247   -3.0045521259307852
   0.0000000000000000    0.0000000000000000    6.0079984664916992
K Rb Na Cr F
1 1 1 1 6
direct
   0.8639352917671204    0.8325396180152893    0.9831493496894836 K
   0.3639078438282013    0.3328332304954529    0.4832349419593811 Rb
   0.1138817295432091    0.5825726985931396    0.2333015948534012 Na
   0.6138291358947754    0.0826323479413986    0.7328025698661804 Cr
   0.8431494235992432    0.3119123280048370    0.9622525572776794 F
   0.3846876025199890    0.8533750772476197    0.5036720037460327 F
   0.8430988192558289    0.3116224706172943    0.5036687850952148 F
   0.3848053812980652    0.8535261750221252    0.9621447324752808 F
   0.3847103118896484    0.3119358718395233    0.9625868201255798 F
   0.8430999517440796    0.8535386323928833    0.5038753747940062 F
