Sr3 Mg1 Zn2 F12                         
   1.00000000000000     
     5.6240151319614400   -0.0286836050762954    1.3583935662305076
     1.8234548523539307    6.1531119106090300    2.4723446864042296
    -0.0009171234510369    0.0033396229331051    7.8910641296144721
   Sr   Mg   Zn   F 
     3     1     2    12
Direct
  0.5519134615342953  0.8992961747208603  0.8836117085029244
  0.0056015474861770  0.4481072555041299  0.7463231292180844
  0.3782653747650874  0.3488948253191799  0.2443535804751386
  0.9845114148840104  0.0955550434566564  0.5708104618127990
  0.0170647223546039  0.9893706535738059  0.2052079604279952
  0.5930612169777882  0.6951948455881443  0.4136164340773723
  0.2040827548154753  0.1984061561190267  0.0234330841991955
  0.6942074641130991  0.4929371590221327  0.0228591716966463
  0.9325168685985542  0.4337332893844973  0.4236029178028878
  0.7719999263095704  0.1123339072990384  0.3881734326792995
  0.2483096008756792  0.9904660372500533  0.3772497102728957
  0.3617030888155604  0.5305752344527228  0.4639320587884465
  0.7460296390921255  0.2010090181452545  0.7628633962935776
  0.2247084188796923  0.7547199062135831  0.1098237360210373
  0.6199584939142706  0.7133457356058848  0.6445675624513506
  0.7121596486777845  0.8964819012659279  0.1828496905881720
  0.2595948987369256  0.1269730123497299  0.6576700214989905
  0.9898013869231067  0.8050746933574161  0.7357848015380999
 
  0.00000000E+00  0.00000000E+00  0.00000000E+00
  0.00000000E+00  0.00000000E+00  0.00000000E+00
  0.00000000E+00  0.00000000E+00  0.00000000E+00
  0.00000000E+00  0.00000000E+00  0.00000000E+00
  0.00000000E+00  0.00000000E+00  0.00000000E+00
  0.00000000E+00  0.00000000E+00  0.00000000E+00
  0.00000000E+00  0.00000000E+00  0.00000000E+00
  0.00000000E+00  0.00000000E+00  0.00000000E+00
  0.00000000E+00  0.00000000E+00  0.00000000E+00
  0.00000000E+00  0.00000000E+00  0.00000000E+00
  0.00000000E+00  0.00000000E+00  0.00000000E+00
  0.00000000E+00  0.00000000E+00  0.00000000E+00
  0.00000000E+00  0.00000000E+00  0.00000000E+00
  0.00000000E+00  0.00000000E+00  0.00000000E+00
  0.00000000E+00  0.00000000E+00  0.00000000E+00
  0.00000000E+00  0.00000000E+00  0.00000000E+00
  0.00000000E+00  0.00000000E+00  0.00000000E+00
  0.00000000E+00  0.00000000E+00  0.00000000E+00
