Li2 Fe1 F5
1.0
   3.7664132118225102    0.0000000000000000    1.1894907951354972
   1.2415833063962649    4.5000011383881393    2.7385621070861821
   0.0000000000000000    0.0000000000000000    6.4960727691650391
Li Fe F
2 1 5
direct
   0.1669552028179169    0.3052063584327698    0.2880381643772125 Li
   0.2309460788965226    0.6965063810348511    0.7612434625625610 Li
   0.9166193008422853    0.1605860143899918    0.9312060475349426 Fe
   0.0878171473741531    0.1192811876535416    0.6305855512619019 F
   0.0626764073967934    0.7285063862800598    0.0746355429291725 F
   0.7937726378440857    0.5863891243934631    0.7441391944885254 F
   0.3882088959217072    0.2098577767610550    0.9370398521423340 F
   0.7519397139549255    0.1946496367454529    0.2283743768930435 F
