K1 Na1 Li1 Pr1 F6
1.0
   6.2746667861938477    0.0000000000000000   -2.9239661693573002
  -3.5403939592697498    5.0705299598631992   -0.0249434169381859
   0.0000000000000000    0.0000000000000000    6.0634565353393555
K Na Li Pr F
1 1 1 1 6
direct
   0.9063976407051085    0.3286881744861603    0.8471826314926147 K
   0.5030913352966309    0.6550813317298889    0.6478974223136902 Na
   0.5723654627799988    0.9678884744644165    0.1807495355606079 Li
   0.0551005154848098    0.8341773152351378    0.4228577315807343 Pr
   0.8188524842262268    0.9246878027915955    0.0663108378648758 F
   0.2810315787792206    0.7546566724777222    0.2791743278503418 F
   0.4290430545806885    0.2601968944072723    0.6205004453659058 F
   0.7759376168251038    0.3708208799362182    0.2925677001476288 F
   0.2829854488372802    0.7583760023117064    0.7913333773612976 F
   0.8166596293449402    0.9228979945182800    0.5428993701934814 F
