Ba2 F4                                  
   1.00000000000000     
     4.0980267178802423    0.0010674485080211   -0.0023131361595043
     0.0007349100620194    4.0993088604517975    0.0027976036398491
     0.0086849107443170   -0.0024217666256575    6.8198647591828188
   Ba   F 
     2     4
Direct
  0.5096691575393759  0.5756898955027441  0.3436201532401015
  0.0092086360406674  0.0756347686216182  0.8259847306842374
  0.0077981496009502  0.0770664346548635  0.2185840630675002
  0.0100751346643161  0.5750774250568227  0.5850713385363390
  0.5098375072065167  0.0749622675152865  0.5851333528204511
  0.5084774044425046  0.5768979860811140  0.9512751142024496
 
  0.00000000E+00  0.00000000E+00  0.00000000E+00
  0.00000000E+00  0.00000000E+00  0.00000000E+00
  0.00000000E+00  0.00000000E+00  0.00000000E+00
  0.00000000E+00  0.00000000E+00  0.00000000E+00
  0.00000000E+00  0.00000000E+00  0.00000000E+00
  0.00000000E+00  0.00000000E+00  0.00000000E+00
