Sr2 Ta2 O6 F2
1.0
   3.9430291652679443    0.0000000000000000   -0.0184256266802557
   1.9291367664005332    5.8631280253838751   -0.0220743883401157
   0.0000000000000000    0.0000000000000000    7.5761156082153320
Sr Ta O F
2 2 6 2
direct
   0.7563865780830383    0.0079946592450142    0.5225846171379089 Sr
   0.2127671539783478    0.0923254489898682    0.0215935036540031 Sr
   0.4960822165012360    0.5291196107864380    0.7715766429901123 Ta
   0.4699986577033997    0.5744602084159851    0.2720921933650970 Ta
   0.6499396562576293    0.2205476462841034    0.8338492512702942 O
   0.5333890914916992    0.4519031941890717    0.5128396749496460 O
   0.4371552467346191    0.6505591273307800    0.0136337252333760 O
   0.9736772775650024    0.5730348825454713    0.7538004517555237 O
   0.9940021038055419    0.5319884419441223    0.2546317577362061 O
   0.3167652189731597    0.8832598328590394    0.3332425951957703 O
   0.3109632134437560    0.8969327211380005    0.7059030532836914 F
   0.6566037535667419    0.2071847021579742    0.2046533524990082 F
