Rb2 Ca2 Tm2 F12
1.0
   6.1183066368103027    0.0000000000000000    0.0048565352335573
  -3.0578410524288424    5.2936346515128969    0.0046973675489430
   0.0000000000000000    0.0000000000000000   11.3629541397094727
Rb Ca Tm F
2 2 2 12
direct
   0.5936055779457092    0.0746279433369637    0.5421254634857178 Rb
   0.5925137996673584    0.0748242884874344    0.0425325743854046 Rb
   0.9260545969009399    0.7412705421447754    0.7922369837760924 Ca
   0.2592871189117431    0.4082758724689483    0.2923857867717743 Ca
   0.9262736439704895    0.7418899536132812    0.2918303906917572 Tm
   0.2596958279609680    0.4083047211170197    0.7927058935165404 Tm
   0.9673109054565430    0.4644177854061126    0.1914254426956176 F
   0.9673153758049011    0.0601767152547836    0.3932822346687316 F
   0.2031282186508179    0.7009052038192749    0.3936317861080169 F
   0.5778818130493164    0.4477534890174865    0.8936740159988402 F
   0.2036496400833130    0.0600380562245846    0.1915524005889892 F
   0.5777114033699036    0.6858903169631958    0.6920825839042664 F
   0.9821829199790955    0.4484709203243255    0.6918643116950989 F
   0.6079135537147522    0.7003869414329529    0.1913517713546753 F
   0.9818437099456787    0.0895289555191994    0.8933016061782836 F
   0.2195959240198135    0.6857635378837585    0.8933764100074767 F
   0.6082571148872375    0.4640672206878662    0.3933149874210357 F
   0.2187564671039581    0.0894862785935402    0.6917327642440796 F
