K2 Bi3 F11                              
   1.00000000000000     
     5.8150865709636710    0.0104855077993621   -0.0205147358480213
    -0.0345736281191228    6.2688100954873258   -0.0208444164775703
     0.0200601241057679    0.0088935214415820    8.6551010579257994
   K    Bi   F 
     2     3    11
Direct
  0.1534332371270810  0.6751644953852783  0.5560355319057811
  0.6793555684075825  0.6721939039579481  0.0551519530234953
  0.6773456236983612  0.1717719583982986  0.3540067153926025
  0.6761676533177433  0.1714375875767465  0.7562858913160166
  0.1737484348324589  0.1724120552698428  0.0555492419874779
  0.9404230923077517  0.3847220649317265  0.2160155851972161
  0.4287775991338129  0.3881402352326279  0.2235942321421762
  0.4279926275687293  0.3892864705382649  0.8849559654785158
  0.9385493297397652  0.3825365210902424  0.8969339973784960
  0.4283476351725419  0.9549246273772009  0.2231978652606239
  0.8001162430396122  0.4059014319644358  0.5562500517743361
  0.8019130689649719  0.9381861299799935  0.5544767254161296
  0.4277816548446969  0.9558985346934301  0.8862230313478612
  0.3991747300529148  0.1670411631895942  0.5538831627846321
  0.9378466810100781  0.9600538316283568  0.8952004664731974
  0.9401747746498107  0.9605069980576341  0.2155661247538558
 
  0.00000000E+00  0.00000000E+00  0.00000000E+00
  0.00000000E+00  0.00000000E+00  0.00000000E+00
  0.00000000E+00  0.00000000E+00  0.00000000E+00
  0.00000000E+00  0.00000000E+00  0.00000000E+00
  0.00000000E+00  0.00000000E+00  0.00000000E+00
  0.00000000E+00  0.00000000E+00  0.00000000E+00
  0.00000000E+00  0.00000000E+00  0.00000000E+00
  0.00000000E+00  0.00000000E+00  0.00000000E+00
  0.00000000E+00  0.00000000E+00  0.00000000E+00
  0.00000000E+00  0.00000000E+00  0.00000000E+00
  0.00000000E+00  0.00000000E+00  0.00000000E+00
  0.00000000E+00  0.00000000E+00  0.00000000E+00
  0.00000000E+00  0.00000000E+00  0.00000000E+00
  0.00000000E+00  0.00000000E+00  0.00000000E+00
  0.00000000E+00  0.00000000E+00  0.00000000E+00
  0.00000000E+00  0.00000000E+00  0.00000000E+00
