Cs F  Li Sc
 1.0000000000000000
     5.6568428536671211    0.0000000000000000    0.0000000000000000
     2.0914106628372235    5.2293440129787383    0.0000000000000000
     2.0455172934205583    1.5049251264938419    5.1099712736056881
 Cs  F   Li  Sc 
   1   5   1   1
Cartesian
  6.8024695504922272  4.1667701480870569  0.8996052262714044
  1.6131472777331890  0.5941223264650218  0.3799147492315232
  5.6028847796315828  1.2854816316135163  2.7557384938869052
  6.1614482029415099  3.1240583546469676  4.7619991064195402
  4.3871492367791660  4.5628018006535269  3.1891956609353125
  2.9014219247558346  2.2626411436448373  2.6612495585212637
  1.7330869951852346  0.8671957437952930  2.2784289445931041
  4.5318622408078095  2.6552586878284048  3.7657377960073615
