Na3 Nd3 F12
1.0
   5.8413906097412118    0.0000000000000000   -3.4633913040161111
  -1.5947233429038477    5.0217319687812596    1.7504214048385620
   0.0000000000000000    0.0000000000000000    8.8087987899780273
Na Nd F
3 3 12
direct
   0.7299096584320068    0.8537058234214783    0.2078500986099243 Na
   0.2123226672410965    0.5151813626289368    0.3673824071884155 Na
   0.7236828804016113    0.5079593658447266    0.8938350677490234 Na
   0.2173267751932144    0.1756290197372437    0.0541402511298657 Nd
   0.2293040901422501    0.8507956862449647    0.7097451686859131 Nd
   0.7176742553710938    0.1836452782154083    0.5373882055282593 Nd
   0.4752937853336334    0.2541854977607727    0.6286306977272034 F
   0.4770576953887939    0.9461174011230469    0.2958472669124603 F
   0.9738557934761047    0.4273874759674073    0.7912704944610596 F
   0.9755848646163940    0.2655362486839294    0.1251522898674011 F
   0.9765770435333252    0.0909277051687241    0.4753429889678955 F
   0.4476647675037384    0.5895388126373291    0.9540233612060547 F
   0.9751627445220947    0.5935046076774597    0.4762895405292511 F
   0.9770112037658691    0.7709482312202454    0.1241142004728317 F
   0.4764822125434876    0.4217686355113984    0.2953934371471405 F
   0.9749658107757568    0.9439485073089600    0.7903453111648560 F
   0.4766625761985779    0.7770224809646606    0.6277495622634888 F
   0.4469395875930786    0.0897977724671364    0.9537793993949890 F
