Li3 Fe1 F6
1.0
   5.1273250579833984    0.0000000000000000    0.0123153673484928
  -2.5715075621002383    3.7827507558944768   -2.3656167984008785
   0.0000000000000000    0.0000000000000000    5.6118974685668945
Li Fe F
3 1 6
direct
   0.1353687644004822    0.5914059281349182    0.3804698884487152 Li
   0.6396768093109131    0.5993648171424866    0.8884125947952271 Li
   0.9439249634742737    0.2104975283145905    0.8031314611434937 Li
   0.3249957561492920    0.9699457883834839    0.9447097182273865 Fe
   0.3650043010711670    0.7448779940605165    0.1235738769173622 F
   0.7272847294807435    0.4128935933113099    0.1249543204903603 F
   0.0612860806286335    0.1079189553856850    0.1257479935884476 F
   0.5317399501800538    0.7868829965591432    0.6845821738243103 F
   0.9354997873306274    0.5063035488128662    0.6863386631011963 F
   0.2498801350593567    0.1008663997054100    0.6859523057937622 F
