K2 Bi2 F8
1.0
   6.2421989440917969    0.0000000000000000    0.0037709686439493
   0.0078131193976002    5.7049626254669370   -0.0009129237150787
   0.0000000000000000    0.0000000000000000    5.7110271453857422
K Bi F
2 2 8
direct
   0.0115455184131861    0.3442431092262268    0.8331052064895630 K
   0.0120188724249601    0.8447071313858031    0.3330423533916473 K
   0.5117684602737427    0.3452409803867340    0.3334623575210571 Bi
   0.5117666125297546    0.8453347682952880    0.8328348994255066 Bi
   0.3029582500457764    0.5939815640449524    0.5830416083335876 F
   0.7199788093566893    0.5947263240814209    0.5829079151153564 F
   0.7200527191162108    0.0944458246231079    0.5832281708717346 F
   0.3032115101814270    0.0949636027216911    0.0828015729784966 F
   0.7202983498573302    0.5945484042167664    0.0829761028289795 F
   0.7204884290695189    0.0952081978321075    0.0829796418547630 F
   0.3038321435451508    0.5949826836585997    0.0831693634390831 F
   0.3031228482723236    0.0937627106904984    0.5823513269424438 F
