Sr2 Cl1 F3                              
   1.00000000000000     
     4.1932009505413292   -0.0029063559459200   -0.4964302852340607
    -0.0000739797254862    4.1658308405953592    0.0019812211907919
    -0.7881232677364879    0.0060848107673940    6.6282393806704922
   Sr   Cl   F 
     2     1     3
Direct
  0.7940541410266211  0.9468072811398449  0.3638319305596592
  0.1186574492651803  0.4477396198141262  0.9268039286062491
  0.5376019250292698  0.9476791868208844  0.7531150315620474
 -0.0369701753214481  0.4470355294072589  0.5536340874240839
  0.6945931272250944  0.4474555345448418  0.1338154102095353
  0.2144566521104566  0.9467028209312012  0.1650408741935472
 
  0.00000000E+00  0.00000000E+00  0.00000000E+00
  0.00000000E+00  0.00000000E+00  0.00000000E+00
  0.00000000E+00  0.00000000E+00  0.00000000E+00
  0.00000000E+00  0.00000000E+00  0.00000000E+00
  0.00000000E+00  0.00000000E+00  0.00000000E+00
  0.00000000E+00  0.00000000E+00  0.00000000E+00
