Na3 Tl1 F6
1.0
   5.6659717559814453    0.0000000000000000    0.0045245024375619
  -2.8657103932925998    4.0699883047439753   -3.3181297779083261
   0.0000000000000000    0.0000000000000000    5.9606027603149414
Na Tl F
3 1 6
direct
   0.8705388903617859    0.7172521352767944    0.4828787446022034 Na
   0.1587322056293488    0.2954797148704529    0.1954981237649918 Na
   0.6623206734657288    0.3013102412223816    0.6931230425834656 Na
   0.3653425276279449    0.7076436877250671    0.9889404177665710 Tl
   0.4744649827480316    0.5287649035453796    0.6047312021255493 F
   0.2643617093563080    0.8063417077064514    0.3737200200557709 F
   0.5662723183631897    0.5227671861648560    0.0892220884561539 F
   0.9803993701934814    0.2210632413625717    0.7882008552551270 F
   0.7507300376892090    0.1990070194005966    0.2737959921360016 F
   0.0793401524424553    0.8064879775047302    0.8816838264465332 F
