Na2 Mn1 C1 S1 O6 F2
1.0
   5.1513733863830566    0.0000000000000000    0.0412504114210606
  -2.1222060548391242    4.6899220912724342   -0.0355266369879255
   0.0000000000000000    0.0000000000000000    7.1925373077392578
Na Mn C S O F
2 1 1 1 6 2
direct
   0.9375580549240111    0.2599268555641174    0.3975614309310913 Na
   0.2559480667114257    0.9397838115692138    0.1391195654869080 Na
   0.2535597980022430    0.9398640990257263    0.6831441521644592 Mn
   0.5765002369880676    0.6196642518043517    0.4198954403400421 C
   0.8974398970603943    0.2991922199726105    0.8941456675529480 S
   0.9843046665191649    0.2131377607583999    0.0687832236289978 O
   0.5103442072868347    0.6856624484062195    0.2568331360816956 O
   0.0035391463898122    0.1925383210182190    0.7277151942253113 O
   0.5738288760185242    0.1763163954019547    0.8875008225440979 O
   0.4928314089775084    0.7039804458618163    0.5793982148170471 O
   0.0192881338298321    0.6224694252014160    0.8851673007011414 O
   0.9337233304977416    0.7298854589462280    0.4234179556369781 F
   0.4684303402900695    0.2662325501441956    0.4243849515914917 F
