Na1 Pr2 F7
1.0
   3.8942205905914311    0.0000000000000000   -1.1739921569824217
  -0.7065141787289236    5.2193020766701670   -2.3652758598327637
   0.0000000000000000    0.0000000000000000    6.9306530952453613
Na Pr F
1 2 7
direct
   0.0610202103853226    0.5543354749679565    0.1911132633686065 Na
   0.7272409200668335    0.2112598717212677    0.5026735067367554 Pr
   0.3921265006065369    0.8727015256881714    0.8307052254676819 Pr
   0.5555180311203003    0.8179969787597655    0.1686333566904067 F
   0.2351085692644119    0.9979177117347716    0.5208000540733336 F
   0.9084253907203674    0.6291031837463379    0.8704556226730347 F
   0.7423402070999146    0.7237251400947571    0.5382354259490967 F
   0.5603773593902588    0.2664087712764740    0.1641471683979034 F
   0.2358653396368026    0.4406245946884155    0.5232619643211365 F
   0.9095652699470520    0.1558340787887573    0.8656216859817505 F
