Na1 Tl1 Ga2 F8
1.0
   5.4918179512023926    0.0000000000000000    0.0338037125766278
  -0.3036545746886083    5.6287968685272691   -0.0014315651496873
   0.0000000000000000    0.0000000000000000    6.3703522682189941
Na Tl Ga F
1 1 2 8
direct
   0.5027658343315125    0.1398179829120636    0.1248740106821060 Na
   0.5023880004882812    0.1397041529417038    0.6248304843902588 Tl
   0.0030904961749911    0.6412315368652344    0.3691778481006622 Ga
   0.0035086343996227    0.6398613452911377    0.8810804486274718 Ga
   0.1793189644813538    0.4842926859855651    0.1248685196042061 F
   0.8390024304389954    0.7826361060142517    0.6253483891487122 F
   0.8266428112983704    0.7954611778259277    0.1253814101219177 F
   0.2307088971138000    0.8949103355407715    0.8962167501449584 F
   0.2305391132831573    0.8972039222717285    0.3530653417110443 F
   0.7754131555557251    0.3832876682281494    0.3529114127159119 F
   0.1663366407155991    0.4972585737705231    0.6245632767677307 F
   0.7757270336151123    0.3839216530323028    0.8966891765594481 F
