K1 Sm1 Be2 F8
1.0
   4.8836250305175781    0.0000000000000000   -1.5556915998458862
  -0.5769751148632453    4.7874008657196132   -1.7369961738586419
   0.0000000000000000    0.0000000000000000    7.5476150512695312
K Sm Be F
1 1 2 8
direct
   0.8688048720359802    0.8664458394050599    0.2445411682128906 K
   0.1206715330481529    0.6193406581878662    0.7542335987091064 Sm
   0.5626172423362732    0.5290350914001465    0.5679139494895935 Be
   0.3228851854801178    0.2437789589166641    0.9989495277404785 Be
   0.1706001758575439    0.5117610096931458    0.0304985940456390 F
   0.6338520646095276    0.3026747107505798    0.1178558245301247 F
   0.7389961481094360    0.2814652919769287    0.5471107363700867 F
   0.2494219839572906    0.1250894814729691    0.7603619098663330 F
   0.2456229627132416    0.4794497787952423    0.4730040431022644 F
   0.5977328419685364    0.6501358151435852    0.8073154687881470 F
   0.7443209886550903    0.7469547390937805    0.5437363982200623 F
   0.1705533266067505    0.0047934488393366    0.0292983520776033 F
