Na2 Li1 Al1 H1 F7                       
   1.00000000000000     
     5.7131911478873176   -0.0382868819181479    0.3786230667647941
     0.6127960019435117    4.6408802309963697    0.9273274863243912
     0.0357074267205405   -0.0772625015091336    5.3600916843980935
   Na   Li   Al   H    F 
     2     1     1     1     7
Direct
  0.0457402407258445  0.9778607276649184  0.7252046003648995
  0.1229959715319283  0.5210626128836362  0.2702762698618710
  0.4998099024296399  0.9357583034460893  0.1944360811803229
  0.6458107782352220  0.5748759935117834  0.8115585754803259
  0.5602803055705962  0.1791347955501179  0.5668470939012911
  0.7989780195067616  0.7181216998102007  0.0305828275179986
  0.4932292844773185  0.4065635623859669  0.5630861602498058
  0.6205182543738229  0.2517339131033063  0.0208959469861225
  0.6444328339548309  0.9267142748440240  0.5624472708414008
  0.3649922014663272  0.7329583569678857  0.9262360741789256
  0.9209361955224958  0.4591792247218207  0.6568567872304899
  0.2003926580927064  0.0164411660841851  0.3302632760783231
 
  0.00000000E+00  0.00000000E+00  0.00000000E+00
  0.00000000E+00  0.00000000E+00  0.00000000E+00
  0.00000000E+00  0.00000000E+00  0.00000000E+00
  0.00000000E+00  0.00000000E+00  0.00000000E+00
  0.00000000E+00  0.00000000E+00  0.00000000E+00
  0.00000000E+00  0.00000000E+00  0.00000000E+00
  0.00000000E+00  0.00000000E+00  0.00000000E+00
  0.00000000E+00  0.00000000E+00  0.00000000E+00
  0.00000000E+00  0.00000000E+00  0.00000000E+00
  0.00000000E+00  0.00000000E+00  0.00000000E+00
  0.00000000E+00  0.00000000E+00  0.00000000E+00
  0.00000000E+00  0.00000000E+00  0.00000000E+00
