K2 Gd1 F5                               
   1.00000000000000     
     4.2019243694607971    0.0027449104493100    1.3707898865164956
     0.8457819833845202    5.5163307103223165    4.4933859201036270
    -0.0229436978171940   -0.0256580759900090    7.1629085662663217
   K    Gd   F 
     2     1     5
Direct
  0.6593702679676152  0.0260825564187015  0.6468568030258606
  0.3020516052743137  0.3847663173695839  0.0053422784991462
  0.9806968311898463  0.7051456170625162  0.3260345877689809
  0.8467517990794036  0.5950608414430949  0.7024643670882249
  0.8466426347887144  0.0807068223366492  0.2178399982946267
  0.1136054388945178  0.8165170188350439  0.9488859710832551
  0.4810810220763780  0.7042570064682897  0.3260976071170774
  0.1128295198035555  0.3288241849204566  0.4355641621033133
 
  0.00000000E+00  0.00000000E+00  0.00000000E+00
  0.00000000E+00  0.00000000E+00  0.00000000E+00
  0.00000000E+00  0.00000000E+00  0.00000000E+00
  0.00000000E+00  0.00000000E+00  0.00000000E+00
  0.00000000E+00  0.00000000E+00  0.00000000E+00
  0.00000000E+00  0.00000000E+00  0.00000000E+00
  0.00000000E+00  0.00000000E+00  0.00000000E+00
  0.00000000E+00  0.00000000E+00  0.00000000E+00
