K1 Rb1 Si1 F6                           
   1.00000000000000     
     5.3153384645763548   -0.0047744134769020    3.0873366472933097
     1.7742384986734796    5.0094358043421394    3.0905811423286083
    -0.0064253340942702   -0.0057754858292000    6.1438946517454927
   K    Rb   Si   F 
     1     1     1     6
Direct
  0.7715471579665573  0.4813152060486011  0.2080434434096882
  0.5211382299183772  0.2315786141029683  0.9584302363535515
  0.2716073807512117  0.9814929652236611  0.7084415887621410
  0.0731441948951983  0.7835052572129705  0.9068720328078314
  0.4695475978143464  0.1800420172462197  0.5103816926413450
  0.0737396797258847  0.1799239964177948  0.5096908227288210
  0.0729339731949716  0.1794988745222609  0.9069123821229533
  0.4702586628737455  0.7832733203782172  0.5100453220451110
  0.4696293062670136  0.7828057164118889  0.9071465395543158
 
  0.00000000E+00  0.00000000E+00  0.00000000E+00
  0.00000000E+00  0.00000000E+00  0.00000000E+00
  0.00000000E+00  0.00000000E+00  0.00000000E+00
  0.00000000E+00  0.00000000E+00  0.00000000E+00
  0.00000000E+00  0.00000000E+00  0.00000000E+00
  0.00000000E+00  0.00000000E+00  0.00000000E+00
  0.00000000E+00  0.00000000E+00  0.00000000E+00
  0.00000000E+00  0.00000000E+00  0.00000000E+00
  0.00000000E+00  0.00000000E+00  0.00000000E+00
