Sb4 F12
1.0
   5.7057352066040039    0.0000000000000000   -0.6577961444854740
  -0.3884044436269946    5.6696683140852997   -1.5015537738800053
   0.0000000000000000    0.0000000000000000    7.9745206832885742
Sb F
4 12
direct
   0.8611651062965393    0.5634812116622925    0.5128850340843201 Sb
   0.8152841329574585    0.0836165025830269    0.0181959290057421 Sb
   0.4103430807590485    0.0886680930852890    0.5357234477996826 Sb
   0.2886264622211456    0.6086417436599731    0.1005282551050186 Sb
   0.2045368254184723    0.8584797382354737    0.6071541905403137 F
   0.2230673879384995    0.9722064733505249    0.2812522947788239 F
   0.0374755151569843    0.7230342626571656    0.9478127360343933 F
   0.7418704628944397    0.9671700000762939    0.7620713114738464 F
   0.5073518753051758    0.8618143796920776    0.0093880221247673 F
   0.1056403815746307    0.3127561509609222    0.5606797337532043 F
   0.0968999043107033    0.2743006944656372    0.9427937865257263 F
   0.0228318851441145    0.5275737047195436    0.2567054033279419 F
   0.6443804502487183    0.4627154171466828    0.6645821332931519 F
   0.6787334084510803    0.2819588780403137    0.3427455425262451 F
   0.5977634191513062    0.3334684371948242    0.9869922399520874 F
   0.5670664310455322    0.7631019353866577    0.3986635208129883 F
