Ca1 Mg1 Ti2 F12
1.0
   5.5982179641723633    0.0000000000000000   -0.0676951631903651
  -0.0016203631408053    5.4379847019790759    0.0094889774918560
   0.0000000000000000    0.0000000000000000    7.8363652229309082
Ca Mg Ti F
1 1 2 12
direct
   0.1303963214159012    0.7124187350273132    0.7977650761604309 Ca
   0.6300624012947083    0.2110141813755036    0.2978459596633911 Mg
   0.1306597143411636    0.7104738950729370    0.2982097566127777 Ti
   0.6304380297660828    0.2113532572984695    0.7976267933845520 Ti
   0.1149722859263420    0.7980837225914001    0.0684523805975914 F
   0.4041641354560852    0.5052849650382996    0.2572921514511108 F
   0.1455259919166565    0.6242541074752808    0.5277057290077211 F
   0.9198650121688843    0.4348695278167725    0.2586203813552856 F
   0.8029881119728088    0.9243596792221069    0.7553951144218445 F
   0.6172281503677368    0.1315570026636124    0.0378510504961014 F
   0.9164614677429199    0.3818988204002380    0.8397231101989746 F
   0.6428541541099548    0.2905125021934509    0.5584154129028320 F
   0.3441556990146637    0.0416631177067757    0.7566463947296143 F
   0.4572870135307312    0.4984906613826752    0.8409842252731323 F
   0.8554375171661377    0.9166958928108215    0.3380548357963562 F
   0.3411802947521210    0.9863795042037964    0.3373594880104065 F
