Cs1 Li1 S2 O6 F2                        
   1.00000000000000     
     4.9009787846971493    0.0334904514661569    1.5694983150699378
    -0.6896797160069956    5.2374568698179562    2.0831372771119914
    -0.0554903590663347    0.0449440846678632    8.0143857469098094
   Cs   Li   S    O    F 
     1     1     2     6     2
Direct
  0.2379943828712676  0.1412694493456852  0.0411581427362594
  0.4058613600006388  0.9010521362009422  0.5115997077003968
  0.6092915546954270  0.4576349510864054  0.4032986633251042
  0.7890134190565113  0.7436741732890083  0.7593388102218750
  0.8209249527913454  0.4953308652218744  0.8867208961956642
  0.0075805060015213  0.8598203989891068  0.5787366814433620
  0.5087481157168287  0.2731607028657653  0.3429228118955200
  0.5132742783678694  0.7761422564953562  0.7466064399210186
  0.6073268643425941  0.3588856725486658  0.5973434286915138
  0.5204487333637217  0.7111348388167805  0.3361309470979058
  0.8219803478701995  0.9286363784577244  0.8699612620969343
  0.9361523713557359  0.5165259530527330  0.2785047349505584
 
  0.00000000E+00  0.00000000E+00  0.00000000E+00
  0.00000000E+00  0.00000000E+00  0.00000000E+00
  0.00000000E+00  0.00000000E+00  0.00000000E+00
  0.00000000E+00  0.00000000E+00  0.00000000E+00
  0.00000000E+00  0.00000000E+00  0.00000000E+00
  0.00000000E+00  0.00000000E+00  0.00000000E+00
  0.00000000E+00  0.00000000E+00  0.00000000E+00
  0.00000000E+00  0.00000000E+00  0.00000000E+00
  0.00000000E+00  0.00000000E+00  0.00000000E+00
  0.00000000E+00  0.00000000E+00  0.00000000E+00
  0.00000000E+00  0.00000000E+00  0.00000000E+00
  0.00000000E+00  0.00000000E+00  0.00000000E+00
