Li5 Mn2 F9                              
   1.00000000000000     
     4.9436972428018731   -0.3615818357426374    0.5096557172658859
    -0.6499013305398971    4.7806667413140413   -1.4628386205336565
    -0.1487852655102693    0.1692405654157741    6.7972616192871582
   Li   Mn   F 
     5     2     9
Direct
  0.3259925721348718  0.4707863757608288  0.9611381841732834
  0.6896483241984007  0.7064287614917185  0.2314825642579139
  0.8980521945758908  0.6534721918159860  0.8457123627723041
  0.0129241076443968  0.2286799607878373  0.1401319590717284
  0.4543266876299277  0.8870798655689666  0.7602648008006793
  0.0018686817362896  0.0907728439628016  0.5934267303127665
  0.4985870789556847  0.3041982950401571  0.4886605356956943
  0.7439899429674709  0.7044237691082916  0.5487051413775917
  0.8117086589876216  0.1241297677525042  0.3510552699582054
  0.2167367672252301  0.4946470686529491  0.6813132351099199
  0.1336408421983193  0.0471744768002393  0.8570418838586771
  0.3950730239805395  0.3731682620943624  0.2273603406841513
  0.9873688156979310  0.5573491279605374  0.0784578709817003
  0.5951489969910628  0.7875075654973028  0.9768485047681594
  0.3027032947866996  0.9176551172693632  0.4608790630103989
  0.6752239909357964  0.2512140911759290  0.7300314225039086
 
  0.00000000E+00  0.00000000E+00  0.00000000E+00
  0.00000000E+00  0.00000000E+00  0.00000000E+00
  0.00000000E+00  0.00000000E+00  0.00000000E+00
  0.00000000E+00  0.00000000E+00  0.00000000E+00
  0.00000000E+00  0.00000000E+00  0.00000000E+00
  0.00000000E+00  0.00000000E+00  0.00000000E+00
  0.00000000E+00  0.00000000E+00  0.00000000E+00
  0.00000000E+00  0.00000000E+00  0.00000000E+00
  0.00000000E+00  0.00000000E+00  0.00000000E+00
  0.00000000E+00  0.00000000E+00  0.00000000E+00
  0.00000000E+00  0.00000000E+00  0.00000000E+00
  0.00000000E+00  0.00000000E+00  0.00000000E+00
  0.00000000E+00  0.00000000E+00  0.00000000E+00
  0.00000000E+00  0.00000000E+00  0.00000000E+00
  0.00000000E+00  0.00000000E+00  0.00000000E+00
  0.00000000E+00  0.00000000E+00  0.00000000E+00
