Li1 P1 F6                               
   1.00000000000000     
     4.6384312369730658    0.0721995105195704    0.4946990959481519
    -0.8936866159177412    4.0448168431718257   -2.2768739991911620
    -0.0387274453766496    0.0359591133468542    4.9933650047916576
   Li   P    F 
     1     1     6
Direct
  0.9968089552312970  0.4611492621830035  0.6216693561434818
  0.4980919664355477  0.9613932775350469  0.6217037523190918
  0.2936302758582678  0.8975018612366411  0.8814553687894948
  0.2816048873148890  0.1896896216575123  0.6204038008433047
  0.7055785140176575  0.2875482677211437  0.8827997552655008
  0.7026963218284121  0.0252162263874048  0.3617278960182352
  0.7150727655169692  0.7336623447018373  0.6232841914390984
  0.2909457328376401  0.6356017852376190  0.3604577402772207
 
  0.00000000E+00  0.00000000E+00  0.00000000E+00
  0.00000000E+00  0.00000000E+00  0.00000000E+00
  0.00000000E+00  0.00000000E+00  0.00000000E+00
  0.00000000E+00  0.00000000E+00  0.00000000E+00
  0.00000000E+00  0.00000000E+00  0.00000000E+00
  0.00000000E+00  0.00000000E+00  0.00000000E+00
  0.00000000E+00  0.00000000E+00  0.00000000E+00
  0.00000000E+00  0.00000000E+00  0.00000000E+00
