Cs3 Cr1 F6
1.0
   7.2363080978393555    0.0000000000000000   -1.6067525148391728
  -2.5386209180869637    6.8392467635193714   -1.4732412099838261
   0.0000000000000000    0.0000000000000000    7.5041036605834961
Cs Cr F
3 1 6
direct
   0.1321446150541306    0.7908495068550110    0.3305027782917023 Cs
   0.1320402473211288    0.2911819517612457    0.8293783664703368 Cs
   0.6331127882003783    0.7920078039169310    0.8310093283653258 Cs
   0.1336952745914459    0.7919059395790100    0.8293518424034118 Cr
   0.3252161741256713    0.7437731623649596    0.0223853886127472 F
   0.9407238960266112    0.8403177261352538    0.6402072906494141 F
   0.0875685364007950    0.9849237203598022    0.0212431550025940 F
   0.9324003458023069    0.5944066047668456    0.8881649374961852 F
   0.1794969737529754    0.5982604026794434    0.6411737799644470 F
   0.3347126543521880    0.9895657300949096    0.7728680968284607 F
