F  Ho Sm
 1.0000000000000000
     5.4095416540299182    0.0000000000000000    0.0000000000000000
    -0.4285061484565442    5.4035120801396221    0.0000000000000000
    -2.5663157447855305   -2.7539996785972662    6.0806252585463119
 F   Ho  Sm 
   9   1   2
Cartesian
 -1.4931043861842237 -0.0718586436260042  5.2680971736050024
  1.3214062249349914 -0.1991089998240413  4.1542005522369774
  0.3428430874706889  1.9148461793379612  5.6813391484157298
  3.6270072563781830 -0.4058947184538734  2.4444016291197159
 -1.8508435030641437  2.7239859879023745  4.1387858926849246
  0.2613587845181674  1.7882936904536730  1.4435546334793181
  3.2648087639108212  1.8563676687406332  0.7431481632669986
  0.0823332286215965  4.7906894806891094  0.7271952899547534
  1.1476600052861456  2.8112768351349935  3.4271690822280867
  2.3406016373134499 -1.7799046714178499  5.4770683610965447
 -0.4394826455165611  1.0694629454903968  3.5392349728051387
  1.8540786322347436  3.5294226134503490  1.3264556287690619
