K3 Ca2 Zn2 F11
1.0
   6.0420298576354972    0.0000000000000000   -3.5793223381042480
  -1.8210964619261458    6.9926690297354996   -1.0404002666473391
   0.0000000000000000    0.0000000000000000    7.2477469444274902
K Ca Zn F
3 2 2 11
direct
   0.1747984588146210    0.0635902136564255    0.2456336319446564 K
   0.4980232417583466    0.9204919338226318    0.9187372922897340 K
   0.8358591198921204    0.9919901490211488    0.5821013450622559 K
   0.9083176851272583    0.4855180978775025    0.3658746778964997 Ca
   0.7587233781814575    0.4975701272487640    0.7959597110748292 Ca
   0.3466660678386688    0.6304730772972108    0.3573245108127595 Zn
   0.3219433128833771    0.3548681139945984    0.8068222999572755 Zn
   0.1266971975564957    0.7837942242622377    0.4647221565246583 F
   0.5424938797950745    0.1988990157842636    0.6958121061325074 F
   0.8636862635612488    0.1724963337182999    0.3081764578819274 F
   0.4178600013256073    0.8218264579772949    0.2346325963735581 F
   0.3346256315708160    0.4922924339771271    0.5818138718605042 F
   0.2549963295459747    0.1617686450481415    0.9302843213081361 F
   0.0406546555459499    0.4570521712303162    0.7269380688667298 F
   0.6256234645843506    0.5218769907951355    0.4333710372447968 F
   0.6259407401084900    0.5286532640457153    0.0334272347390652 F
   0.0447880327701569    0.4564859271049500    0.1294118463993073 F
   0.8098620176315308    0.8114548325538635    0.8569489717483522 F
