Na2 Al1 F5                              
   1.00000000000000     
     3.6195208241039429   -0.0087818772292360    0.0211790895445352
     0.0256063527587462    5.5751012013428429    0.0997421352748098
    -0.0101469136591303   -0.0136269310965484    5.5718888064041714
   Na   Al   F 
     2     1     5
Direct
  0.1939013127864943  0.6155929934772190  0.3461104306370210
  0.1947157426561955  0.1157861387108079  0.8473136584947134
  0.6940151297431710  0.6149451315285894  0.8465951918310095
  0.6930758501500728  0.3844746779425012  0.0768723730763016
  0.6964307611840694  0.3878062778609880  0.6193178835261428
  0.6922457115474253  0.8418428248778892  0.0744133587163443
  0.6941259113340191  0.8451889509106297  0.6160824265168103
  0.1938948932559089  0.6149631060431139  0.8469577658809708
 
  0.00000000E+00  0.00000000E+00  0.00000000E+00
  0.00000000E+00  0.00000000E+00  0.00000000E+00
  0.00000000E+00  0.00000000E+00  0.00000000E+00
  0.00000000E+00  0.00000000E+00  0.00000000E+00
  0.00000000E+00  0.00000000E+00  0.00000000E+00
  0.00000000E+00  0.00000000E+00  0.00000000E+00
  0.00000000E+00  0.00000000E+00  0.00000000E+00
  0.00000000E+00  0.00000000E+00  0.00000000E+00
