Li2 B3 F11
1.0
   5.1272807121276864    0.0000000000000000   -1.3619757890701292
   1.5749585092954559    5.4247192224187195    2.8872475624084473
   0.0000000000000000    0.0000000000000000    6.7373332977294922
Li B F
2 3 11
direct
   0.1588809341192245    0.6964234113693237    0.0947331115603447 Li
   0.5820211172103882    0.1823956221342087    0.2751494646072388 Li
   0.4916493892669678    0.9662446379661559    0.7573715448379517 B
   0.0038155317306519    0.2710075676441193    0.9944044351577759 B
   0.8006603717803955    0.5792183876037598    0.4388349950313568 B
   0.7955559492111206    0.3063678145408630    0.0806360468268394 F
   0.7314600944519043    0.8213703036308287    0.3937218487262726 F
   0.2033692896366119    0.3843660056591034    0.0507223606109619 F
   0.8809468150138855    0.4013388156890869    0.7185184955596924 F
   0.5738368034362793    0.5176870226860046    0.3368164598941803 F
   0.0205097272992134    0.5329749584197998    0.3758487105369568 F
   0.4111294746398926    0.0722499489784241    0.5068266987800598 F
   0.4648421406745911    0.1498711705207825    0.8165253996849060 F
   0.3233194947242737    0.8128736019134523    0.8369067907333374 F
   0.7709921002387999    0.8204933404922485    0.8589448332786560 F
   0.1199412718415260    0.0226863995194435    0.0858017429709435 F
