Ni3 F6
1.0
   3.0014758110046387    0.0000000000000000   -0.6475806236267089
  -0.1123689375169633    4.7792544592069213   -0.5111114382743837
   0.0000000000000000    0.0000000000000000    7.2269172668457031
Ni F
3 6
direct
   0.0201885402202606    0.1217704340815544    0.8684047460556030 Ni
   0.6799948215484619    0.6746347546577454    0.1843210011720657 Ni
   0.3386136591434479    0.2271241545677185    0.5017965435981750 Ni
   0.1075773984193802    0.8203102946281433    0.0381018519401550 F
   0.2536034882068634    0.5287176370620728    0.3335958123207092 F
   0.9179090261459351    0.3928628563880920    0.6621321439743042 F
   0.7680532336235046    0.0296945609152317    0.3608815371990204 F
   0.4391246140003204    0.9571495056152344    0.7077822089195251 F
   0.5927414298057556    0.3203364610671997    0.0092107914388180 F
