K1 Si1 Pb1 F9
1.0
   5.2823309898376474    0.0000000000000000   -0.0461038425564767
  -0.0610214675565935    5.0645056126283716   -0.7818419933319088
   0.0000000000000000    0.0000000000000000    6.9268598556518555
K Si Pb F
1 1 1 9
direct
   0.9714409112930297    0.9545748233795165    0.4734211564064025 K
   0.4703751206398010    0.4547462165355683    0.4750756621360778 Si
   0.4702712297439575    0.4566274583339692    0.9733008146286010 Pb
   0.2488022148609161    0.3119997084140778    0.3163544535636902 F
   0.9739201068878173    0.5975155234336853    0.0152477789670229 F
   0.6941940784454346    0.6012449860572815    0.6358863115310669 F
   0.9692442417144774    0.3173652291297913    0.9317402243614196 F
   0.4731696546077728    0.9552708864212036    0.9771210551261901 F
   0.4764727950096130    0.1971373409032822    0.6001688838005066 F
   0.2400755584239960    0.5861914157867432    0.6288180947303772 F
   0.4663933515548706    0.7134543657302856    0.3497479557991028 F
   0.7024771571159363    0.3261352777481079    0.3201263844966888 F
