Sr2 Cl2 F2
1.0
   4.3905010223388672    0.0000000000000000    0.0354695729911328
  -2.1976291566723480    3.8423277679505623   -0.0252742059528830
   0.0000000000000000    0.0000000000000000    7.0335617065429688
Sr Cl F
2 2 2
direct
   0.5736455917358398    0.7048394083976746    0.7269085645675659 Sr
   0.2411108016967773    0.0414071455597878    0.3090358376502991 Sr
   0.5748087167739868    0.7082118988037109    0.3417193293571472 Cl
   0.9082713127136232    0.3708322048187256    0.0041169943287969 Cl
   0.9078444242477417    0.3727272450923920    0.5286453962326050 F
   0.2412849217653275    0.0369360074400902    0.6724140644073486 F
