Ca1 Zr1 F6
1.0
   5.2611937522888184    0.0000000000000000   -0.0215390753000969
   2.6054381162583695    4.5766439999019015   -0.0269359052181235
   0.0000000000000000    0.0000000000000000    5.0865173339843750
Ca Zr F
1 1 6
direct
   0.1625009924173355    0.6471253633499146    0.9416570663452150 Ca
   0.4959154725074767    0.9814989566802980    0.4419083297252656 Zr
   0.8068528771400452    0.6892037391662598    0.2088536173105240 F
   0.4763524532318115    0.2935536801815033    0.2092018723487854 F
   0.4770005941390990    0.6876899600028992    0.6734439730644226 F
   0.2029847204685211    0.2921932339668274    0.6728678941726685 F
   0.2031361907720567    0.9629591703414916    0.2081826180219651 F
   0.8069824576377866    0.9623469710350038    0.6746504306793213 F
