Rb4 Mg1 Ni1 F8
1.0
   5.9360404014587402    0.0000000000000000   -1.2021396160125724
  -1.6150749139358558    5.1469081813388842   -3.5974726676940896
   0.0000000000000000    0.0000000000000000    8.2073802947998047
Rb Mg Ni F
4 1 1 8
direct
   0.9660541415214537    0.8222622871398925    0.8916096687316893 Rb
   0.9156689643859864    0.0242043081671000    0.5896561741828918 Rb
   0.2283516973257065    0.6427654027938843    0.2377924770116805 Rb
   0.6576969027519226    0.2027335166931152    0.2476580440998077 Rb
   0.5525420308113098    0.3798416852951050    0.9087382555007935 Mg
   0.3291179239749908    0.4629741907119750    0.5757210850715637 Ni
   0.5565437674522400    0.6460447907447815    0.5344372987747192 F
   0.8017958998680116    0.2409575134515762    0.9555379152297974 F
   0.7000858783721924    0.7213320732116698    0.1522896438837051 F
   0.0815159827470779    0.6076802611351013    0.5276386737823486 F
   0.1734997630119324    0.1236712411046028    0.3286041319370270 F
   0.3249715268611908    0.1978879123926163    0.9489357471466064 F
   0.2894167602062225    0.5281519889831543    0.8296723365783691 F
   0.5836204290390015    0.3087447285652161    0.6525704264640808 F
