Na1 Ni2 F5
1.0
   3.9394712448120117    0.0000000000000000   -0.0075841001234945
   0.0096512369680337    3.8456993592095334    1.2384006977081299
   0.0000000000000000    0.0000000000000000    6.5181331634521484
Na Ni F
1 2 5
direct
   0.1942214220762253    0.2321696430444717    0.0437081120908260 Na
   0.6924680471420287    0.8937464952468872    0.7241751551628113 Ni
   0.6961708068847655    0.5726531147956848    0.3635103106498718 Ni
   0.6944732069969176    0.7329068779945374    0.0439081117510796 F
   0.6939952373504638    0.4048351049423218    0.7010695934295654 F
   0.1930912286043167    0.8783740401268005    0.7564768195152283 F
   0.1960131376981735    0.5874686241149902    0.3313786089420319 F
   0.6949027776718139    0.0612359158694744    0.3861846029758453 F
