Li6 F6                                  
   1.00000000000000     
     3.1031819632241016    0.0022371019102295   -0.0020171936789360
     0.0102551942557890    5.2160518581194921    1.2693587315399861
     0.0007588058833668   -0.0080550109201962    7.6517467103863650
   Li   F 
     6     6
Direct
  0.9074193192914722  0.8924423330580280  0.4748233172002017
  0.4084472752186785  0.3926027074792885  0.4737434833617513
  0.9087458962132918  0.4463488569575990  0.8060352151794239
  0.4082581598053212  0.9466493739629969  0.8060004892482571
  0.9104328130120181  0.6724745285739530  0.1408927143120653
  0.4091885896247243  0.1721361299432176  0.1411489469634560
  0.4099562224850519  0.4786157771376861  0.2203489691860598
  0.9079937857422050  0.7534963910902892  0.8859773342811743
  0.9059634361519958  0.5328982474700790  0.5526578755618718
  0.4077610153002059  0.2533978868777105  0.8859225930948693
  0.4048689172596824  0.0336297970942109  0.5530039107191533
  0.9101721619058504  0.9783185160259273  0.2211516879000016
 
  0.00000000E+00  0.00000000E+00  0.00000000E+00
  0.00000000E+00  0.00000000E+00  0.00000000E+00
  0.00000000E+00  0.00000000E+00  0.00000000E+00
  0.00000000E+00  0.00000000E+00  0.00000000E+00
  0.00000000E+00  0.00000000E+00  0.00000000E+00
  0.00000000E+00  0.00000000E+00  0.00000000E+00
  0.00000000E+00  0.00000000E+00  0.00000000E+00
  0.00000000E+00  0.00000000E+00  0.00000000E+00
  0.00000000E+00  0.00000000E+00  0.00000000E+00
  0.00000000E+00  0.00000000E+00  0.00000000E+00
  0.00000000E+00  0.00000000E+00  0.00000000E+00
  0.00000000E+00  0.00000000E+00  0.00000000E+00
