Ca5 Tb1 F14
1.0
   5.5692644119262695    0.0000000000000000    0.0796641930937772
   0.0043798544309739    5.2342830453273343   -1.6576354503631603
   0.0000000000000000    0.0000000000000000    9.1119546890258789
Ca Tb F
5 1 14
direct
   0.6507842540740967    0.1901315450668335    0.1286267936229706 Ca
   0.1510915756225586    0.6835864782333374    0.1293455958366394 Ca
   0.6093459129333496    0.5079140067100525    0.7950659394264221 Ca
   0.1123632937669754    0.0309966579079628    0.7948752641677856 Ca
   0.1898899078369141    0.3509059846401215    0.4750511050224304 Ca
   0.6896928548812866    0.8759312033653260    0.4761475026607513 Tb
   0.4052806794643402    0.1368319243192673    0.6286892294883728 F
   0.7322103381156921    0.8698760867118835    0.7390945553779602 F
   0.3232350647449493    0.4322551786899567    0.2532227337360382 F
   0.8171373605728149    0.5755971670150757    0.2554387450218201 F
   0.9045644402503967    0.0749591067433357    0.3205494284629822 F
   0.9756405353546143    0.9401786923408508    0.0117655284702778 F
   0.4785068631172180    0.8121978640556337    0.0135666551068425 F
   0.5716730952262878    0.5096228122711182    0.5120958685874939 F
   0.4148979187011719    0.9829446673393250    0.3207489252090454 F
   0.8949015736579895    0.2310811430215836    0.6295992732048035 F
   0.8875679373741150    0.3872912228107452    0.9517328143119812 F
   0.2324482649564743    0.6195798516273499    0.7452532052993774 F
   0.0673588439822197    0.7588756084442139    0.5114284157752991 F
   0.3894406557083130    0.3021840751171112    0.9478266239166260 F
