Ca Cs F 
 1.0000000000000000
     6.4163415589963675    0.0000000000000000    0.0000000000000000
    -3.1859789166165977    6.7700203098089178    0.0000000000000000
    -0.1261837455309700   -2.2248405455110389    7.9310975793056420
 Ca  Cs  F  
   2   4   8
Cartesian
 -0.3893466566963698  0.9510407997882111  5.8841566707367470
  2.8711097806662100  1.1787279896036853  7.7998156604968854
 -0.2780324245270960  1.0823628686328015  1.7898616873570541
 -0.3516361170430775  4.4483026567260993  6.8295141233283445
 -0.2778513099812728  5.5462851532432040  2.8711536699162279
  2.8905915542312961  3.2340000255282848  3.9470350183544638
  1.7766677835319697  0.1757077336589579  5.8792506761618402
  2.6096856931783532  1.6529194534102116  1.3859094308327962
  4.1686082444369896  2.3191228370930501  6.3161375767446026
  5.3493294345112341 -0.4975452423593949  4.2712530447801456
 -0.0069604713977576  2.6838684543003390  4.3437840476350198
  3.6919419242145599  4.8279437976182411  1.4882346124869983
  4.7327976158146008 -0.1886027439326940  7.3639158206842525
  0.7178588066701000  1.9642607967894254  7.8053206043034749
