F  K  Li Rb Sn
 1.0000000000000000
     6.4056554097521445    0.0000000000000000    0.0000000000000000
    -2.9343835199722164    5.8723595398131128    0.0000000000000000
    -1.6861176421867330   -0.7261359428439164    5.3437593859289567
 F   K   Li  Rb  Sn 
   7   1   1   1   1
Cartesian
 -1.8409697391692355  2.7284331879894901  3.3677984843966313
  0.4676226251450339  1.8055808025408508  3.1879963710928609
  0.5614082914826779  4.6484580325242959  0.7009127548770998
  0.3831954789337529  4.3402204171282017  3.3964716508767014
  4.7613081354216238  2.1451966283912860  0.6921026089890908
  1.0697787236749374  2.2369228955258040  0.7200580066941632
 -1.8042922456662480  4.7235611485505231  1.6677705462391661
  2.8345230547457940  0.9854890863573181  2.3059797407715803
 -0.3234464462393056  2.8701338564325458  4.6919587690391822
 -3.2867121780900739  5.0448075650796191  4.2204504567754419
 -0.4220055476772852  3.1997259396819451  1.8647728328302828
