Na2 Al1 F5
1.0
   3.6491177082061768    0.0000000000000000    0.0278117917478088
   0.0394927405157851    5.5844975234055703    0.1134555712342255
   0.0000000000000000    0.0000000000000000    5.5703144073486328
Na Al F
2 1 5
direct
   0.1935854703187943    0.6154032349586487    0.3457055687904357 Na
   0.1943168938159943    0.1158558279275894    0.8472288846969604 Na
   0.6945038437843323    0.6148537397384644    0.8463205099105835 Al
   0.6934017539024353    0.3850765228271484    0.0759539008140564 F
   0.6941069364547729    0.3883188664913177    0.6195933818817139 F
   0.6937918066978455    0.8416933417320253    0.0742714852094650 F
   0.6941777467727661    0.8441172242164612    0.6175383329391479 F
   0.1945208609104156    0.6152813434600830    0.8470510244369507 F
