Na3 Y1 F6                               
   1.00000000000000     
     3.5790004483169393   -0.0057435866996152    0.0037984857214614
    -1.7833335286182994    6.8478898873645822   -0.2125910446867845
     0.0042771200078556   -0.0027102291953037    5.8083955375188792
   Na   Y    F 
     3     1     6
Direct
  0.3985737465148303  0.1898165892092668  0.2913566109267975
  0.0298215287806432  0.4526432804878225  0.7104175325927964
  0.1096023922971581  0.6117339941525393  0.2347029987302517
  0.7672707033396231  0.9271685962057580  0.8189176766614841
  0.8690804870062042  0.1316994565906529  0.5379788031930595
  0.2608556563643282  0.9166655985826142  0.0599754979371188
  0.6120484773438042  0.6206193793852629  0.9371979029042424
  0.5504711417132215  0.4935126411873012  0.4393250058860796
  0.9110188355221392  0.2149681379238626  0.0069141660957698
  0.2150023939511904  0.8214531189880846  0.6155624631423688
 
  0.00000000E+00  0.00000000E+00  0.00000000E+00
  0.00000000E+00  0.00000000E+00  0.00000000E+00
  0.00000000E+00  0.00000000E+00  0.00000000E+00
  0.00000000E+00  0.00000000E+00  0.00000000E+00
  0.00000000E+00  0.00000000E+00  0.00000000E+00
  0.00000000E+00  0.00000000E+00  0.00000000E+00
  0.00000000E+00  0.00000000E+00  0.00000000E+00
  0.00000000E+00  0.00000000E+00  0.00000000E+00
  0.00000000E+00  0.00000000E+00  0.00000000E+00
  0.00000000E+00  0.00000000E+00  0.00000000E+00
