Rb2 Sb1 F5                              
   1.00000000000000     
     4.7002765140763199    0.0084419453913417   -0.0239407769357166
    -0.0363372488040957    5.4929940206256660   -3.3901763252356103
     0.0105767363543781    0.0105838810684181    6.1687979122506142
   Rb   Sb   F 
     2     1     5
Direct
  0.1675767942470651  0.7385297264762382  0.9204577979086934
  0.5678295305737431  0.4182114428626240  0.2795999098250221
  0.8235045796848613  0.0763193265307115  0.5966278065704780
  0.0946067852541899  0.2225832344682437  0.4344604135058094
  0.6659552500431678  0.9414531791234050  0.8245704983701840
  0.1045565689772189  0.2175031295312704  0.8772882403801131
  0.6647516102921215  0.4383120103203274  0.8247437538541541
  0.0962546833515864  0.7692767676518063  0.4345358656077319
 
  0.00000000E+00  0.00000000E+00  0.00000000E+00
  0.00000000E+00  0.00000000E+00  0.00000000E+00
  0.00000000E+00  0.00000000E+00  0.00000000E+00
  0.00000000E+00  0.00000000E+00  0.00000000E+00
  0.00000000E+00  0.00000000E+00  0.00000000E+00
  0.00000000E+00  0.00000000E+00  0.00000000E+00
  0.00000000E+00  0.00000000E+00  0.00000000E+00
  0.00000000E+00  0.00000000E+00  0.00000000E+00
