Na1 Tl2 In1 F6                          
   1.00000000000000     
     4.4287387780142931   -0.0036747135140024    0.0033786188441117
     0.0033582629109938    6.2792189174507760    0.0006559900005662
    -0.0069163517081335    0.0032116180435972    6.2673389349877926
   Na   Tl   In   F 
     1     2     1     6
Direct
  0.3028142007672185  0.3076242203404267  0.4515861481767433
  0.8017861920941159  0.8104679177668940  0.4508217170030780
  0.8031277511909551  0.3090926024647762  0.9511645093520051
  0.3029713811668324  0.8076622213201073  0.9519751906645199
  0.3053411445817417  0.0412440341941631  0.7189887469907443
  0.8027567029743956  0.3050913257339752  0.4516734242677496
  0.3019313265332805  0.5744424160489104  0.7188326248446878
  0.3048283321330234  0.0408142201357774  0.1851896935114090
  0.8031974054607511  0.8080552802932333  0.9519790010362021
  0.3032903612334431  0.5748747367152306  0.1856060539760872
 
  0.00000000E+00  0.00000000E+00  0.00000000E+00
  0.00000000E+00  0.00000000E+00  0.00000000E+00
  0.00000000E+00  0.00000000E+00  0.00000000E+00
  0.00000000E+00  0.00000000E+00  0.00000000E+00
  0.00000000E+00  0.00000000E+00  0.00000000E+00
  0.00000000E+00  0.00000000E+00  0.00000000E+00
  0.00000000E+00  0.00000000E+00  0.00000000E+00
  0.00000000E+00  0.00000000E+00  0.00000000E+00
  0.00000000E+00  0.00000000E+00  0.00000000E+00
  0.00000000E+00  0.00000000E+00  0.00000000E+00
