Rb1 Y1 Tl2 F6                           
   1.00000000000000     
     5.9377042275205358    0.0034893139770605    3.3911379847274024
     1.9688487914474653    5.5892884868620607    3.3996964542284340
     0.0116080017933138   -0.0002786610123944    6.8310653665228021
   Rb   Y    Tl   F 
     1     1     2     6
Direct
  0.9058104322664960  0.1163863973243214  0.5982679863882531
  0.4056308432483412  0.6166179958566944  0.0984173464172299
  0.1555774990169764  0.3672481055841810  0.8489065898103340
  0.6553187884964758  0.8667272477232044  0.3490280294454995
  0.1815114440893141  0.8414894921762092  0.3228998317695214
  0.6300023513833133  0.8415997449744482  0.8737569571918232
  0.6298612731216879  0.3920242263329490  0.8739046346816813
  0.1806638534286472  0.3919150501023653  0.3227552848472870
  0.6302100138351951  0.3923606745862867  0.3234177545270821
  0.1809297738968322  0.8411815844481130  0.8736566856903314
 
  0.00000000E+00  0.00000000E+00  0.00000000E+00
  0.00000000E+00  0.00000000E+00  0.00000000E+00
  0.00000000E+00  0.00000000E+00  0.00000000E+00
  0.00000000E+00  0.00000000E+00  0.00000000E+00
  0.00000000E+00  0.00000000E+00  0.00000000E+00
  0.00000000E+00  0.00000000E+00  0.00000000E+00
  0.00000000E+00  0.00000000E+00  0.00000000E+00
  0.00000000E+00  0.00000000E+00  0.00000000E+00
  0.00000000E+00  0.00000000E+00  0.00000000E+00
  0.00000000E+00  0.00000000E+00  0.00000000E+00
