Na1 As1 F6
1.0
   4.8905463218688965    0.0000000000000000    0.0532144941389554
   0.1082671404128667    4.5116315186799749   -2.5131309032440172
   0.0000000000000000    0.0000000000000000    5.1650900840759277
Na As F
1 1 6
direct
   0.9009313583374023    0.0079862261191010    0.9924416542053223 Na
   0.4010016024112701    0.3425067365169525    0.6573173999786377 As
   0.6106864213943481    0.6228427886962891    0.9326626658439636 F
   0.6118882298469543    0.0654403194785118    0.6628187894821166 F
   0.1893037110567093    0.6249507069587708    0.6641297936439514 F
   0.1911136656999588    0.0678022950887680    0.3774469792842865 F
   0.1907602846622467    0.3368138372898102    0.9326097965240479 F
   0.6116246581077576    0.3358922898769379    0.3760809898376465 F
