K2 Ba1 Bi1 F7                           
   1.00000000000000     
     4.5038248284327400    0.0020499040268684   -0.0001511882774825
     0.0071724681493720    6.3239257321194771    0.0176887620477663
     0.0036101896849804   -0.0016751472126174    8.2621492965425674
   K    Ba   Bi   F 
     2     1     1     7
Direct
  0.0632042575122833  0.2184231705852826  0.7657588850452264
  0.0635804476907104  0.2165272694838256  0.2369441092171956
  0.5632763035339400  0.7169745389038832  0.0009415258458091
  0.5633996974350119  0.7169615387752606  0.5011254584083016
  0.5642754939919549  0.4752964245548839  0.7073927448083633
  0.5636543648198458  0.9579628607282825  0.2952774768044732
  0.0631819075780347  0.7180187823681240  0.5009787050295149
  0.5631357683650100  0.9578122151123369  0.7061037805528569
  0.5631864469853565  0.4761144481287941  0.2953464861977596
  0.0630041182075308  0.4848750924227402  0.0012106601466279
  0.0633543615095643  0.9492896127253438  0.0008601026315602
 
  0.00000000E+00  0.00000000E+00  0.00000000E+00
  0.00000000E+00  0.00000000E+00  0.00000000E+00
  0.00000000E+00  0.00000000E+00  0.00000000E+00
  0.00000000E+00  0.00000000E+00  0.00000000E+00
  0.00000000E+00  0.00000000E+00  0.00000000E+00
  0.00000000E+00  0.00000000E+00  0.00000000E+00
  0.00000000E+00  0.00000000E+00  0.00000000E+00
  0.00000000E+00  0.00000000E+00  0.00000000E+00
  0.00000000E+00  0.00000000E+00  0.00000000E+00
  0.00000000E+00  0.00000000E+00  0.00000000E+00
  0.00000000E+00  0.00000000E+00  0.00000000E+00
