Na1 Sr1 Al1 F6
1.0
   4.7371435165405273    0.0000000000000000    2.7374396324157724
   1.5896965050780225    4.4669332409968927    2.7476844787597656
   0.0000000000000000    0.0000000000000000    5.4639601707458496
Na Sr Al F
1 1 1 6
direct
   0.2720015347003937    0.4942911565303802    0.8025344014167787 Na
   0.7714825272560120    0.9956021904945374    0.3023756146430969 Sr
   0.5216097235679626    0.7449170947074890    0.0520088076591492 Al
   0.2899886965751648    0.9771791100502014    0.8208184242248536 F
   0.2905532419681550    0.5140151381492615    0.2846813201904297 F
   0.2899794876575470    0.9773005843162537    0.2836719453334808 F
   0.7532222867012023    0.9775846004486085    0.8201749324798585 F
   0.7538491487503053    0.5146390199661255    0.2844647765159606 F
   0.7538982033729553    0.5138537883758545    0.8209779262542726 F
