Na2 Li1 Cd2 F7                          
   1.00000000000000     
     4.6093835957618232    0.0035969407560436   -1.3002249742798551
    -1.6416657411636026    5.1840565327450800    1.9561240828982565
    -0.0796920772772701   -0.0667243323047431    6.8926525980749060
   Na   Li   Cd   F 
     2     1     2     7
Direct
  0.7973995161907821  0.7052264921996381  0.4715235510406406
  0.4140651978145160  0.1430823946456915  0.3013970564424497
  0.3379464177734129  0.4895243238923705  0.6743953532279912
  0.0512167317227181  0.5907713302461789  0.0895822147548377
  0.7054208919784623  0.0499564029957866  0.8953120462882678
  0.8832617762790925  0.1524453937253983  0.2207253774471131
  0.2263531379784543  0.6946948809509157  0.4014322001533274
  0.2562315064977410  0.0167511126376744  0.9854796480344712
  0.5947740935283845  0.6068742448108374  0.1527118038347384
  0.0514640827765307  0.4516427970317650  0.8218048723548851
  0.6926887392745775  0.7600704081850819  0.7492685971036578
  0.4764629764439717  0.2702597914891926  0.5954679638412029
 
  0.00000000E+00  0.00000000E+00  0.00000000E+00
  0.00000000E+00  0.00000000E+00  0.00000000E+00
  0.00000000E+00  0.00000000E+00  0.00000000E+00
  0.00000000E+00  0.00000000E+00  0.00000000E+00
  0.00000000E+00  0.00000000E+00  0.00000000E+00
  0.00000000E+00  0.00000000E+00  0.00000000E+00
  0.00000000E+00  0.00000000E+00  0.00000000E+00
  0.00000000E+00  0.00000000E+00  0.00000000E+00
  0.00000000E+00  0.00000000E+00  0.00000000E+00
  0.00000000E+00  0.00000000E+00  0.00000000E+00
  0.00000000E+00  0.00000000E+00  0.00000000E+00
  0.00000000E+00  0.00000000E+00  0.00000000E+00
