Li4 Tb2 F10                             
   1.00000000000000     
     6.1861160783657851   -0.0200858994186461   -1.4553747685338920
    -4.9101202051395019    5.2551185350287133   -2.6551791887184368
    -0.0144481209195890   -0.1377685391436158    6.5774619770661760
   Li   Tb   F 
     4     2    10
Direct
  0.1790070460048142  0.3506231296769916  0.0808339584308768
  0.1611339000668146  0.9684175538481008  0.1348075072724854
  0.0135687696491174  0.1534756065557370  0.4629489514551811
  0.5913829273000730  0.7759628962567392  0.7645800996992819
  0.6112713962673932  0.2635737035861797  0.7474943252746001
  0.8704261150246376  0.5957709026943644  0.4438542880429734
  0.4509586807333828  0.3048837193449336  0.0247185661577924
  0.4331642566618281  0.4450146636287731  0.6921737884148131
  0.5942381572156121  0.6732122018228399  0.4524014717782840
  0.9219830366186275  0.2170767177167099  0.7202403335455781
  0.9502582793071195  0.0627443696223145  0.1046543936775088
  0.3795181170953077  0.8786470733915792  0.6998474353165102
  0.9833591310207987  0.6618843386715075  0.8342767361542682
  0.5789356799015005  0.2042210296337630  0.3678917941137376
  0.9763341603918400  0.4688047861390148  0.1567420249632697
  0.0972904414362240  0.9316689717700213  0.4083062717158130
 
  0.00000000E+00  0.00000000E+00  0.00000000E+00
  0.00000000E+00  0.00000000E+00  0.00000000E+00
  0.00000000E+00  0.00000000E+00  0.00000000E+00
  0.00000000E+00  0.00000000E+00  0.00000000E+00
  0.00000000E+00  0.00000000E+00  0.00000000E+00
  0.00000000E+00  0.00000000E+00  0.00000000E+00
  0.00000000E+00  0.00000000E+00  0.00000000E+00
  0.00000000E+00  0.00000000E+00  0.00000000E+00
  0.00000000E+00  0.00000000E+00  0.00000000E+00
  0.00000000E+00  0.00000000E+00  0.00000000E+00
  0.00000000E+00  0.00000000E+00  0.00000000E+00
  0.00000000E+00  0.00000000E+00  0.00000000E+00
  0.00000000E+00  0.00000000E+00  0.00000000E+00
  0.00000000E+00  0.00000000E+00  0.00000000E+00
  0.00000000E+00  0.00000000E+00  0.00000000E+00
  0.00000000E+00  0.00000000E+00  0.00000000E+00
