Li7 Mn2 F11
1.0
   4.5799212455749512    0.0000000000000000    2.5187289714813232
  -0.6540513628550567    5.1157583104906310   -0.4984203279018398
   0.0000000000000000    0.0000000000000000    8.9348363876342773
Li Mn F
7 2 11
direct
   0.4671659469604493    0.2501342594623566    0.4812539815902711 Li
   0.3885407149791718    0.9697876572608948    0.9262316226959229 Li
   0.2058406919240952    0.4492227137088776    0.8426738381385803 Li
   0.8669698834419250    0.3499874174594879    0.6637009978294373 Li
   0.1334333270788193    0.1857605576515198    0.2891829609870911 Li
   0.2997710406780243    0.6966181993484497    0.3758265376091003 Li
   0.5830967426300049    0.5421637296676636    0.0147270793095231 Li
   0.6767153143882751    0.8000642061233521    0.5662614703178406 Mn
   0.7805746793746948    0.0791566073894501    0.0994703769683838 Mn
   0.2839127480983734    0.5496996641159058    0.5957140922546387 F
   0.9076326489448547    0.4781387448310852    0.4418383836746216 F
   0.4776245057582856    0.1332246065139771    0.6987937092781067 F
   0.9981307387351991    0.7568260431289673    0.9712070226669313 F
   0.5908779501914978    0.6541485786437988    0.8018260002136230 F
   0.3829490542411804    0.8543179631233214    0.1491431444883347 F
   0.0930040031671524    0.0295717474073172    0.4977003335952759 F
   0.1922011524438858    0.2762033343315125    0.0560027062892914 F
   0.5105921030044556    0.3842345774173737    0.2450882792472840 F
   0.8106609582901001    0.2487614303827286    0.8835505843162537 F
   0.7008960247039795    0.9658865928649901    0.3467223346233368 F
