Li3 Fe1 F5                              
   1.00000000000000     
     3.1485569453987150   -0.0081373276298328    0.0072745803357514
    -1.5550586736343921    5.4217232403495883   -2.8804440307241403
    -0.0029897249950320   -0.0271885819536233    5.8584169616645809
   Li   Fe   F 
     3     1     5
Direct
  0.0998954767496871  0.9510383351553446  0.0136234166694476
  0.3913094383562278  0.5354034538171968  0.5953866346394271
  0.0993622165235961  0.9548668420501898  0.5931526116963202
  0.8368697005733496  0.4262097869280244  0.0418119041688049
  0.3197511766189027  0.3915103037285987  0.2371277614036204
  0.3210501666707211  0.3935669555143536  0.8128018172360735
  0.6565820605272472  0.0658530756770839  0.8608781151727311
  0.9710899381472941  0.6940622855917407  0.6729811789168424
  0.0249850286634081  0.8052571277516957  0.2309107279384057
 
  0.00000000E+00  0.00000000E+00  0.00000000E+00
  0.00000000E+00  0.00000000E+00  0.00000000E+00
  0.00000000E+00  0.00000000E+00  0.00000000E+00
  0.00000000E+00  0.00000000E+00  0.00000000E+00
  0.00000000E+00  0.00000000E+00  0.00000000E+00
  0.00000000E+00  0.00000000E+00  0.00000000E+00
  0.00000000E+00  0.00000000E+00  0.00000000E+00
  0.00000000E+00  0.00000000E+00  0.00000000E+00
  0.00000000E+00  0.00000000E+00  0.00000000E+00
