F  Ho Sm
 1.0000000000000000
     6.0668388738679075    0.0000000000000000    0.0000000000000000
     0.4736008793445963    6.0545147868272169    0.0000000000000000
     0.0014915458509091   -0.0035747791340404    7.1348961806210394
 F   Ho  Sm 
  12   2   2
Cartesian
  3.6244684227754931  5.9339997837171454  5.9186155368851443
  1.6732806391356192  1.3264809563374642  2.3538173223407490
  1.9447451681087204  4.3927228833573393  3.5380245179194443
  5.0213173210896009  4.4182243774094649  2.3529608226147056
  4.7576157046525998  1.3526669891244452  1.1665031888903854
  4.7531415620832522  1.3383624044102786  3.5402546492815947
  0.2833689122923979  2.8439881476525430  5.9176203981766342
  3.3522216538049796  2.8687330025824980  4.7269143939765215
  0.5451176787570263  5.9104605523483666  7.1011724607722249
  1.9421395832419110  4.4024900321205420  1.1683077283454666
  3.3557589045556511  2.8559966848197575  7.1115002144201718
  0.5360891954631075  5.9209086437035277  4.7380033862091837
  0.5408491523055280  5.9078413386429753  2.3530586353937473
  4.7503181674048927  1.3536341138790533  5.9200053288934411
  3.3493143755300685  2.8690437368887931  2.3510517723315831
  1.9436723990157998  4.3912618656656868  5.9225050833073860
