Ca3 Mn1 F8
1.0
   4.9651370048522949    0.0000000000000000    2.1959764957427983
  -0.9802957102235456    4.8620074568526599    2.2101438045501713
   0.0000000000000000    0.0000000000000000    6.6385550498962402
Ca Mn F
3 1 8
direct
   0.4726601243019105    0.4513053596019745    0.9697839617729187 Ca
   0.7212479114532471    0.2018714994192123    0.4707016646862030 Ca
   0.9716264605522157    0.9504694342613220    0.9692867994308472 Ca
   0.2205606848001480    0.7017536163330078    0.4690826237201691 Mn
   0.8551326990127565    0.8244908452033997    0.7150649428367615 F
   0.3447746038436890    0.3336702585220337    0.7143844366073608 F
   0.5895041823387146    0.0694759935140610    0.2257529497146606 F
   0.0995332971215248    0.5774569511413574    0.2250938117504120 F
   0.0994323641061783    0.0703254491090775    0.2225669920444489 F
   0.5904202461242676    0.5783995389938354    0.2242210656404496 F
   0.3455571234226227    0.8250439763069153    0.7149866223335266 F
   0.8514158725738527    0.3312759399414062    0.7155808210372925 F
