K1 H5 F6
1.0
   6.1539773941040039    0.0000000000000000    0.3693791627883916
  -1.1779978516133269    4.0141650397851185    1.5218290090560918
   0.0000000000000000    0.0000000000000000    5.8581185340881348
K H F
1 5 6
direct
   0.6269645690917969    0.4561062157154083    0.8785794377326964 K
   0.1283528804779053    0.9595014452934265    0.8844857811927794 H
   0.4371036291122437    0.6867042779922485    0.3288533091545105 H
   0.0423520021140575    0.1698159724473953    0.1405772864818573 H
   0.2086100578308105    0.7467144727706908    0.6246157884597778 H
   0.8208416104316711    0.2267983704805374    0.4313726723194122 H
   0.7256281375885010    0.1803510785102844    0.5945925116539001 F
   0.1691841185092926    0.0711408630013466    0.0422105044126511 F
   0.9262846708297731    0.2838656008243560    0.2212717980146408 F
   0.5346153974533081    0.7363690733909606    0.1652132123708725 F
   0.0867143943905830    0.8455065488815307    0.7221774458885193 F
   0.3289212286472321    0.6351704597473145    0.5406820774078369 F
