K1 Ba1 Gd1 F6                           
   1.00000000000000     
     3.9713449506081662   -0.0015810503986265   -1.1901081760881815
    -0.7674912411116046    5.5143576080970451   -2.5577099797544003
     0.0154449574106100   -0.0196324650477749    7.2735605184868826
   K    Ba   Gd   F 
     1     1     1     6
Direct
  0.9274514857236509  0.3465112310870646  0.8965386811529991
  0.5954605751441033  0.0143814635264923  0.2321267069770796
  0.2658977909718529  0.6851753479760504  0.5736858097331805
  0.7604588206475416  0.4747207516553127  0.5624310621704292
  0.4109401781504504  0.6089041589897525  0.8626582384277246
  0.4098580156913305  0.0499638499193092  0.8622579674669721
  0.1187477202466390  0.7693720027478852  0.2785000100609140
  0.7604158238584170  0.8857370330605711  0.5624147928788013
  0.1191232171881421  0.3055150690112092  0.2791882917722346
 
  0.00000000E+00  0.00000000E+00  0.00000000E+00
  0.00000000E+00  0.00000000E+00  0.00000000E+00
  0.00000000E+00  0.00000000E+00  0.00000000E+00
  0.00000000E+00  0.00000000E+00  0.00000000E+00
  0.00000000E+00  0.00000000E+00  0.00000000E+00
  0.00000000E+00  0.00000000E+00  0.00000000E+00
  0.00000000E+00  0.00000000E+00  0.00000000E+00
  0.00000000E+00  0.00000000E+00  0.00000000E+00
  0.00000000E+00  0.00000000E+00  0.00000000E+00
