Rb3 Pr1 F6
1.0
   4.6601953506469727    0.0000000000000000    2.2477390766143803
  -4.4322097866319154    6.1011451459702508    1.4810186624526980
   0.0000000000000000    0.0000000000000000    7.8273472785949707
Rb Pr F
3 1 6
direct
   0.9161520600318909    0.5217366218566895    0.7569321393966675 Rb
   0.9146438837051392    0.0212999153882265    0.7574314475059509 Rb
   0.9157671928405762    0.5218734741210938    0.2565454244613647 Rb
   0.9160407781600952    0.0226991400122643    0.2568962275981903 Pr
   0.3050595223903656    0.0037782816216350    0.9898964762687683 F
   0.7753192186355591    0.7435232996940613    0.5305950641632080 F
   0.0550349652767181    0.3001659214496613    0.9823482036590576 F
   0.3280442655086518    0.2914746403694153    0.2595703303813934 F
   0.5038873553276062    0.7512415051460266    0.2537897527217865 F
   0.5238431096076965    0.0370700731873512    0.5244624018669128 F
