K1 Na1 Ho2 F8
1.0
   4.3462162017822275    0.0000000000000000    0.0085382629185922
  -0.0034631218686146    5.8055094880186520    0.0796773210167888
   0.0000000000000000    0.0000000000000000    8.4408082962036133
K Na Ho F
1 1 2 8
direct
   0.8482367396354675    0.6336557269096375    0.4979360401630402 K
   0.8503324389457703    0.6592803001403809    0.9978652000427246 Na
   0.3482727110385895    0.1513183712959290    0.2456921041011810 Ho
   0.3487435281276703    0.1495406180620193    0.7490900158882141 Ho
   0.8486965298652649    0.1492179483175278    0.7503753900527954 F
   0.8494524359703064    0.1499413102865219    0.2472990155220032 F
   0.3485910594463348    0.2716214954853058    0.4983067512512207 F
   0.3483882844448090    0.8056454062461853    0.3360186815261841 F
   0.3476171791553497    0.4948072433471680    0.1549394279718399 F
   0.3489379286766052    0.0137083511799574    0.9984675049781799 F
   0.3463819622993469    0.8039321899414062    0.6663026213645935 F
   0.3505164086818695    0.4920158684253693    0.8408744335174561 F
