K4 Rb1 F5                               
   1.00000000000000     
     5.3142544176020756   -0.0118772556595668   -1.4314275800154641
     0.2126953085200176    3.7914452152893849    0.7498507510546355
    -0.0869704428129725   -0.0685255434418584   10.2669689470805423
   K    Rb   F 
     4     1     5
Direct
  0.7979884887296834  0.8871257875480381  0.5479864644797661
  0.1980591279210829  0.4884949720669343  0.3477358451951043
  0.6019254629524537  0.0845076473731007  0.1554480783359218
  0.0021201719938115  0.6834651059119520  0.9553821002480994
  0.3996437958961848  0.2856756865216221  0.7515233335297905
  0.7020791159291951  0.4859722714227715  0.3532563834225673
  0.0995291503219036  0.0870910236652277  0.1506348105828232
  0.2931954738848247  0.8910104791409670  0.5394976009494623
  0.5061078658039861  0.6790735155061837  0.9632120877903783
  0.9003605256132514  0.2841292497190691  0.7519416813770750
 
  0.00000000E+00  0.00000000E+00  0.00000000E+00
  0.00000000E+00  0.00000000E+00  0.00000000E+00
  0.00000000E+00  0.00000000E+00  0.00000000E+00
  0.00000000E+00  0.00000000E+00  0.00000000E+00
  0.00000000E+00  0.00000000E+00  0.00000000E+00
  0.00000000E+00  0.00000000E+00  0.00000000E+00
  0.00000000E+00  0.00000000E+00  0.00000000E+00
  0.00000000E+00  0.00000000E+00  0.00000000E+00
  0.00000000E+00  0.00000000E+00  0.00000000E+00
  0.00000000E+00  0.00000000E+00  0.00000000E+00
