K2 Rb2 Na1 F5                           
   1.00000000000000     
     3.7234343148651265   -0.0254940772152803   -0.6874768541485172
    -0.2391190433974482    5.3113804966363132   -1.4589808865211262
    -0.0357845606525616   -0.0520611035307267   10.2519590467573494
   K    Rb   Na   F 
     2     2     1     5
Direct
  0.1810557651040834  0.7120581151959519  0.2833716505880276
  0.5842166293244737  0.1174061389713444  0.0947291945411373
  0.7888739057349835  0.3231644694236023  0.5054964244868988
  0.3905810225050304  0.9231756443516396  0.7073894246545671
  0.9903071099369810  0.5228610247534424  0.9075593820312303
  0.4017583654558564  0.4390433432188517  0.7372826565772682
  0.9928741302559948  0.0254866656513993  0.9100144450738115
  0.7802741350302196  0.8129535132648917  0.4828375255028891
  0.1843643660684647  0.2175200491669843  0.2935688815070249
  0.5790070587821931  0.6077145019029095  0.0764127825002570
 
  0.00000000E+00  0.00000000E+00  0.00000000E+00
  0.00000000E+00  0.00000000E+00  0.00000000E+00
  0.00000000E+00  0.00000000E+00  0.00000000E+00
  0.00000000E+00  0.00000000E+00  0.00000000E+00
  0.00000000E+00  0.00000000E+00  0.00000000E+00
  0.00000000E+00  0.00000000E+00  0.00000000E+00
  0.00000000E+00  0.00000000E+00  0.00000000E+00
  0.00000000E+00  0.00000000E+00  0.00000000E+00
  0.00000000E+00  0.00000000E+00  0.00000000E+00
  0.00000000E+00  0.00000000E+00  0.00000000E+00
