Li4 Mn2 F8
1.0
   5.1897511482238770    0.0000000000000000   -0.0014875014312573
   0.0005866014586176    4.8768839483332549    0.0007410334073932
   0.0000000000000000    0.0000000000000000    5.8490505218505859
Li Mn F
4 2 8
direct
   0.9126384854316711    0.3081436157226562    0.0488572679460049 Li
   0.9131289124488831    0.8078657388687134    0.5482277870178223 Li
   0.9145832061767578    0.3080642521381378    0.5002191066741943 Li
   0.9141420125961304    0.8080192804336547    0.9996173381805420 Li
   0.4140787124633789    0.8076644539833069    0.2744352817535400 Mn
   0.4135322868824005    0.3075872063636780    0.7737736701965332 Mn
   0.0624488852918148    0.5433291196823120    0.7739868164062500 F
   0.2238419204950333    0.0574953369796276    0.5239222645759583 F
   0.6030277609825134    0.5583316087722778    0.0237875916063786 F
   0.6036213040351868    0.5576879978179932    0.5238341093063354 F
   0.7655529379844666    0.0731046348810196    0.7743494510650635 F
   0.0622095130383968    0.5730766654014587    0.2743868529796600 F
   0.7643458843231201    0.0433575920760632    0.2744995355606079 F
   0.2242101281881332    0.0577825717628002    0.0244663897901773 F
