Li3 Mn3 F9                              
   1.00000000000000     
     4.9115925000013609   -0.3036246184308182   -0.2172043864029849
     1.0106607957231721    6.1852957219729756   -0.9625515820397447
    -0.0324543389232269   -0.1972176632050683    5.4118078978278641
   Li   Mn   F 
     3     3     9
Direct
  0.3397692127883651  0.9670367822711002  0.6723445913906685
  0.8559169680100120  0.7666735740012295  0.4626581069606646
  0.9160186126234614  0.6340282096659443  0.8514736242000841
  0.3846157668482906  0.5142345284742468  0.3569028326657522
  0.9756876422318480  0.2880571263316862  0.2608678964852436
  0.5644925208069577  0.0659914116641206  0.1679736327421548
  0.6202585347251256  0.3480000158237102  0.0733972257428723
  0.3361575286995275  0.2316763351745860  0.4663693912789461
  0.0430737168318562  0.5639424527176610  0.1539331007796026
  0.2078851818180543  0.1035244751257311  0.9946129431134190
  0.9053952368807303  0.0265512509879009  0.3795799734010558
  0.1862677514963012  0.6977731169455007  0.6456463166430281
  0.6905337403206954  0.8914765723192921  0.8399052957301323
  0.7490488973968362  0.4850324132663463  0.5345579729132313
  0.4881178561526093  0.8023493196573472  0.3064198959266333
 
  0.00000000E+00  0.00000000E+00  0.00000000E+00
  0.00000000E+00  0.00000000E+00  0.00000000E+00
  0.00000000E+00  0.00000000E+00  0.00000000E+00
  0.00000000E+00  0.00000000E+00  0.00000000E+00
  0.00000000E+00  0.00000000E+00  0.00000000E+00
  0.00000000E+00  0.00000000E+00  0.00000000E+00
  0.00000000E+00  0.00000000E+00  0.00000000E+00
  0.00000000E+00  0.00000000E+00  0.00000000E+00
  0.00000000E+00  0.00000000E+00  0.00000000E+00
  0.00000000E+00  0.00000000E+00  0.00000000E+00
  0.00000000E+00  0.00000000E+00  0.00000000E+00
  0.00000000E+00  0.00000000E+00  0.00000000E+00
  0.00000000E+00  0.00000000E+00  0.00000000E+00
  0.00000000E+00  0.00000000E+00  0.00000000E+00
  0.00000000E+00  0.00000000E+00  0.00000000E+00
