Cs2 Zn2 F6
1.0
   5.2225532531738281    0.0000000000000000   -0.0106687210500242
  -0.0455717198816757    5.3619627359234157   -3.1662747859954816
   0.0000000000000000    0.0000000000000000    6.2166337966918945
Cs Zn F
2 2 6
direct
   0.4195570349693298    0.1433241665363312    0.7250448465347290 Cs
   0.9201095104217529    0.4759815335273743    0.3926470279693604 Cs
   0.1697355061769485    0.8096977472305298    0.0587674751877785 Zn
   0.6702553629875183    0.8098905086517334    0.0591856874525548 Zn
   0.4200983345508575    0.0992178246378899    0.2039464116096497 F
   0.9199207425117493    0.5197653174400330    0.9139873981475831 F
   0.4195328056812286    0.6650689244270325    0.7702847719192505 F
   0.9196869730949402    0.9534151554107666    0.9148114323616029 F
   0.4196964204311371    0.6653009057044983    0.2031428515911103 F
   0.9202479720115662    0.9540336728096008    0.3478658795356752 F
