Cs3 Pr1 F6
1.0
   6.2355918884277344    0.0000000000000000    3.3277485370635986
   1.4434400458484027    6.8409632761644703    0.7948864102363594
   0.0000000000000000    0.0000000000000000    7.4037857055664062
Cs Pr F
3 1 6
direct
   0.4260710775852203    0.5500383973121643    0.7835471034049989 Cs
   0.7767274379730225    0.5491740107536316    0.0800783336162567 Cs
   0.6026397943496704    0.0492953844368458    0.4304087162017822 Cs
   0.1015115529298782    0.5495997667312622    0.4315277040004731 Pr
   0.3350411653518677    0.7399876713752747    0.4294338524341584 F
   0.7907263636589050    0.7392565608024596    0.6773961186408998 F
   0.4123170971870422    0.3608493208885193    0.1854914277791977 F
   0.8666418790817260    0.3603091537952423    0.4318950772285462 F
   0.1635104566812515    0.3573485910892487    0.6796082854270936 F
   0.0394956059753895    0.7429758906364441    0.1821732819080353 F
