Cs1 Rb3 H1 Cl2 F3
1.0
   6.7210183143615723    0.0000000000000000   -0.3112787008285517
  -0.3331343753294511    6.6512523150741512    0.3381339311599739
   0.0000000000000000    0.0000000000000000    6.7398662567138672
Cs Rb H Cl F
1 3 1 2 3
direct
   0.3143723905086517    0.4298907518386841    0.1443512737751007 Cs
   0.8156508207321167    0.9277179241180419    0.1470887213945389 Rb
   0.8160395622253418    0.4293296039104461    0.6441865563392639 Rb
   0.3160125613212585    0.9304466843605040    0.6452269554138184 Rb
   0.8150222897529602    0.9288380146026611    0.6458812355995178 H
   0.3153226971626282    0.4293516576290130    0.6446034312248230 Cl
   0.8139780163764954    0.4300667941570282    0.1443253159523010 Cl
   0.3149920701980591    0.9303638339042664    0.1446244120597839 F
   0.9060242772102356    0.8459675908088684    0.5540642738342285 F
   0.7258794307708740    0.0117333307862282    0.7402133345603943 F
