K1 Rb1 Tl1 F5
1.0
   3.7416918277740483    0.0000000000000000   -2.6134867668151855
  -1.8015537645658666    5.1022303911120082   -2.6581206321716309
   0.0000000000000000    0.0000000000000000    7.8878040313720703
K Rb Tl F
1 1 1 5
direct
   0.1390565335750580    0.0435247905552387    0.7925761938095093 K
   0.3883217573165894    0.3950648903846741    0.4668153524398804 Rb
   0.7010190486907959    0.7239254117012024    0.1296229958534241 Tl
   0.8612581491470337    0.4163694977760315    0.9776633381843567 F
   0.3163797855377198    0.8977053165435792    0.4550300836563111 F
   0.8445658683776855    0.8961463570594789    0.9791604876518251 F
   0.6916988492012024    0.4874358773231506    0.2754621207714081 F
   0.1687467992305756    0.4931554198265076    0.7537298798561096 F
