Li4 Fe1 F7                              
   1.00000000000000     
     4.7836275730050613    0.0331806857524317   -1.1800342731916680
    -1.2706325541342638    5.0284186807430657   -0.0386970792598361
    -0.1239592045226265   -0.0378937224761605    5.3702601993887811
   Li   Fe   F 
     4     1     7
Direct
  0.3836376696540577  0.3046698132608319  0.8467096735063689
  0.4690592945567781  0.5095599132686870  0.3351600668542200
  0.0831545205589002  0.6656047654111944  0.6652443013905220
  0.1697576386392789  0.8708915457649372  0.1530771457452163
  0.7760305412447496  0.0876716649802249  0.4999585487472363
  0.1105054748512052  0.3359003507430627  0.4762376287885187
  0.2776025466202243  0.5882408347952381 -0.0002134924428989
  0.5337755714665928  0.1786557863102219  0.1927503693750115
  0.6892748496126687  0.3695684411000708  0.6662945906369703
  0.8624013669069098  0.8058498129231656  0.3336903353945151
  0.0185341976742097  0.9959648446120306  0.8067863726434894
  0.4409024301606592  0.8396738563617187  0.5231329300677701
 
  0.00000000E+00  0.00000000E+00  0.00000000E+00
  0.00000000E+00  0.00000000E+00  0.00000000E+00
  0.00000000E+00  0.00000000E+00  0.00000000E+00
  0.00000000E+00  0.00000000E+00  0.00000000E+00
  0.00000000E+00  0.00000000E+00  0.00000000E+00
  0.00000000E+00  0.00000000E+00  0.00000000E+00
  0.00000000E+00  0.00000000E+00  0.00000000E+00
  0.00000000E+00  0.00000000E+00  0.00000000E+00
  0.00000000E+00  0.00000000E+00  0.00000000E+00
  0.00000000E+00  0.00000000E+00  0.00000000E+00
  0.00000000E+00  0.00000000E+00  0.00000000E+00
  0.00000000E+00  0.00000000E+00  0.00000000E+00
