Ba F  Ga Rb
 1.0000000000000000
     5.8437639746155838    0.0000000000000000    0.0000000000000000
    -2.9356629009864510    6.8410676024168273    0.0000000000000000
     0.0065371996019137   -0.0116891773362694    7.0245276568206796
 Ba  F   Ga  Rb 
   2  12   2   2
Cartesian
  1.2275639268464553  4.1682069523344172  0.8729538022279106
  1.2507979441592356  0.9869500816064868  4.3885800612989767
 -0.2221938757808236  3.0450359720059197  3.0510814934000572
 -1.6899011669203436  4.4778051873384586  0.8871809358385675
  2.7056996353612321  3.0826308130767521  5.7229773592163875
  4.1370870118776164  1.2653108711814243  4.3969363656449900
 -0.2254118725877269  3.0621068238410407  5.7216484229505165
 -0.3103296975350969  6.4097517203305578  2.2204387567403616
  2.7687533899165380  6.3895003570507942  6.5515180402608317
  2.7665931448032084  6.4153543911398927  2.2231001881751471
  1.2461585162426787  1.4889618767498869  0.8509806638063807
 -0.3035462011346634  6.3838353507582069  6.5534812986573874
  2.7017024613602310  3.0669463663199408  3.0481083439281136
 -1.6796982106244744  5.0310858464698702  4.3649878836767249
 -1.6945186152746159  6.3994706025018955  0.8706810762770031
  4.1717072896873377  3.1511623890412479  4.3812215058885533
  4.1662187591466733  1.6129874777593545  0.8638011409891151
  1.2346135919126953  5.2957686995721973  4.3837914525803994
