Rb1 H1 F2                               
   1.00000000000000     
     3.6619851916723363   -0.0003208484388036    0.0009137687158494
     0.0042839693439053    3.6621988421683884    0.0044403637166548
    -0.0007505786802725   -0.0022106678208378    5.1472032229216538
   Rb   H    F 
     1     1     2
Direct
  0.2229102574585946  0.5964773334304294  0.2050112449046008
  0.7218308563867333  0.0958238125415932  0.7050836544319583
  0.7224946873818665  0.0964806167757986  0.4817069876525137
  0.7216246479677135  0.0955886834573179  0.9284541972146472
 
  0.00000000E+00  0.00000000E+00  0.00000000E+00
  0.00000000E+00  0.00000000E+00  0.00000000E+00
  0.00000000E+00  0.00000000E+00  0.00000000E+00
  0.00000000E+00  0.00000000E+00  0.00000000E+00
