Y1 F3                                   
   1.00000000000000     
     4.0701021069184646   -0.0033951402798339    0.0021845585917944
    -2.0240568837166415    3.5296272122500687   -0.0036324657266353
    -0.0003446806465765    0.0000699720080913    4.3656297138029014
   Y    F 
     1     3
Direct
  0.5602093404959524  0.5982258471770234  0.9643055109723621
  0.5577710871361798  0.5963354607407790  0.4637661922677515
  0.8932575870111917  0.2648018116869578  0.9649667006437388
  0.2269921839784260  0.9311652612660588  0.9629236639586312
 
  0.00000000E+00  0.00000000E+00  0.00000000E+00
  0.00000000E+00  0.00000000E+00  0.00000000E+00
  0.00000000E+00  0.00000000E+00  0.00000000E+00
  0.00000000E+00  0.00000000E+00  0.00000000E+00
