K2 H1 I1 F2
1.0
   4.2821016311645508    0.0000000000000000   -0.0040252152830362
   0.0207266016221348    4.7094556571813211   -2.4050281047821040
   0.0000000000000000    0.0000000000000000    7.2368845939636230
K H I F
2 1 1 2
direct
   0.3332834839820862    0.7413296103477478    0.3887853920459747 K
   0.8350428342819214    0.7428306341171265    0.8891834020614623 K
   0.3345470428466797    0.2424916476011276    0.8891498446464537 H
   0.8321850895881653    0.2418550848960876    0.3892770111560821 I
   0.3350572288036346    0.9952960014343262    0.8054253458976744 F
   0.3330337107181549    0.4898054897785186    0.9731178283691405 F
