K2 S2 O6 F2                             
   1.00000000000000     
     5.1251599251651339    0.0092202373995624   -1.8819806009541158
    -0.7187132345922591    4.8712306746177001   -1.8353454957162487
    -0.0150593849067124   -0.0851681608823998    7.7557363377152200
   K    S    O    F 
     2     2     6     2
Direct
  0.1780563354281897  0.2791090397509425  0.1414986845342043
  0.9381988280734619  0.4972686605132665  0.6721152856321670
  0.4327693152793119  0.9517777818414952  0.6611352711008068
  0.6829816647181098  0.8235638842452416  0.1518683436338042
  0.4052837281022093  0.7089823339866946  0.0455535895455555
  0.7100053918818773  0.0677982179394474  0.7670401016597189
  0.7362547414085648  0.1223593939180403  0.2571570023429248
  0.3809814446854671  0.6528258421134168  0.5573739318880846
  0.2548988522575134  0.0663763855765512  0.7614298548147876
  0.8604557516069030  0.7091894708093791  0.0510121688218606
  0.7676485005443708  0.7119502357753925  0.3343414293932886
  0.3470888269134505  0.0607088275853278  0.4773338471141547
 
  0.00000000E+00  0.00000000E+00  0.00000000E+00
  0.00000000E+00  0.00000000E+00  0.00000000E+00
  0.00000000E+00  0.00000000E+00  0.00000000E+00
  0.00000000E+00  0.00000000E+00  0.00000000E+00
  0.00000000E+00  0.00000000E+00  0.00000000E+00
  0.00000000E+00  0.00000000E+00  0.00000000E+00
  0.00000000E+00  0.00000000E+00  0.00000000E+00
  0.00000000E+00  0.00000000E+00  0.00000000E+00
  0.00000000E+00  0.00000000E+00  0.00000000E+00
  0.00000000E+00  0.00000000E+00  0.00000000E+00
  0.00000000E+00  0.00000000E+00  0.00000000E+00
  0.00000000E+00  0.00000000E+00  0.00000000E+00
