Sr1 Zr1 F6
1.0
   4.8880128860473633    0.0000000000000000   -0.5968389511108394
  -0.7205625246741214    4.8169185942785120   -0.6084535121917722
   0.0000000000000000    0.0000000000000000    4.9006457328796387
Sr Zr F
1 1 6
direct
   0.2689307034015656    0.0790689289569855    0.5075827240943909 Sr
   0.7685458064079285    0.5796828866004944    0.0077865887433290 Zr
   0.4751375913619995    0.6519044637680054    0.7139864563941956 F
   0.6937909126281738    0.8734518885612489    0.3015679717063904 F
   0.4755028486251831    0.2860218286514282    0.0855997204780579 F
   0.0619228407740593    0.8736442327499389    0.9297615289688110 F
   0.8434811830520630    0.2860248684883118    0.7137255668640137 F
   0.0624548085033894    0.5075232982635498    0.3012782037258148 F
