Rb1 Y3 F10
1.0
   5.6595263481140137    0.0000000000000000   -0.0221240781247614
  -0.0180808743877364    6.3574209590558555    1.6579257249832162
   0.0000000000000000    0.0000000000000000    6.5534052848815918
Rb Y F
1 3 10
direct
   0.3996253013610840    0.6478486657142639    0.3859922587871552 Rb
   0.8992470502853394    0.1482730507850647    0.3870456516742706 Y
   0.9003157615661621    0.6474400162696838    0.8867585659027100 Y
   0.3998733460903168    0.1480077058076859    0.8863159418106079 Y
   0.1234553903341293    0.4112467765808105    0.8070461750030518 F
   0.8598251342773438    0.8091350197792053    0.5474889278411865 F
   0.2219608426094055    0.1551080495119095    0.5614921450614929 F
   0.9404882192611694    0.4872040152549744    0.2258431464433670 F
   0.2200824171304703    0.8236401677131652    0.8937208652496338 F
   0.1232915148139000    0.0665200874209404    0.1483711004257202 F
   0.5796213150024414    0.4718135893344879    0.8775274157524109 F
   0.6783925294876099    0.2281258404254913    0.6251556277275085 F
   0.6760421395301819    0.8844285607337951    0.9671102762222290 F
   0.5795824527740479    0.1412209719419479    0.2102407664060593 F
