Na2 Mo1 O2 F4
1.0
   4.9503169059753418    0.0000000000000000   -2.7262747287750240
  -3.2513708400426786    4.6039369237650147    0.0021048067137609
   0.0000000000000000    0.0000000000000000    5.8807811737060547
Na Mo O F
2 1 2 4
direct
   0.0715844258666039    0.5266877412796021    0.1571549028158188 Na
   0.6250941157341003    0.3095160722732544    0.4791761040687562 Na
   0.1015679165720940    0.0340523682534695    0.6798275113105774 Mo
   0.5004494786262512    0.3305712640285492    0.8582653403282166 O
   0.1279284656047821    0.7984285950660706    0.8586267232894897 O
   0.6074991226196289    0.6979594230651855    0.4024318158626556 F
   0.9390766620635986    0.1651231348514557    0.8416233658790588 F
   0.9437249898910522    0.2403865903615952    0.4055300652980804 F
   0.1553567647933960    0.9069073200225830    0.4053239226341248 F
