Sr2 Be2 F8
1.0
   4.8310599327087402    0.0000000000000000   -0.0256444495171301
   0.5589858605886102    4.8136460185807231   -0.0027991076931356
   0.0000000000000000    0.0000000000000000    7.4356055259704590
Sr Be F
2 2 8
direct
   0.6261870861053467    0.3510678112506866    0.2279793322086334 Sr
   0.9218288660049438    0.0540222004055977    0.7290863394737244 Sr
   0.4231271147727966    0.5544660687446594    0.7288631200790405 Be
   0.1251340210437775    0.8514443039894105    0.2292028069496155 Be
   0.4495545029640198    0.8726884722709657    0.7291403412818909 F
   0.9760019779205322    0.0005163459572941    0.3988625705242157 F
   0.0987623706459999    0.5315706729888916    0.2289138734340668 F
   0.5710988640785217    0.4053294360637665    0.5594596862792969 F
   0.5750232338905334    0.4045418202877045    0.8972846269607544 F
   0.9730727672576904    0.0007353288820013    0.0608890429139137 F
   0.4448528885841369    0.8782566189765931    0.2291031032800674 F
   0.1041181012988090    0.5265228152275087    0.7288526296615601 F
