Li4 Mn1 F6
1.0
   5.0540513992309561    0.0000000000000000   -0.0016474283765995
  -2.5293030393840170    4.3780241337752708    0.0024535250850013
   0.0000000000000000    0.0000000000000000    5.0937213897705078
Li Mn F
4 1 6
direct
   0.7526634931564331    0.1296768188476562    0.4750706851482391 Li
   0.0859375968575478    0.7980501651763916    0.9747264981269836 Li
   0.4192624092102051    0.4624733328819275    0.4743951559066772 Li
   0.0861843749880791    0.7969155907630920    0.4739771783351898 Li
   0.7528411149978638    0.1304842084646225    0.9744146466255188 Mn
   0.7723413705825806    0.4674805700778961    0.7087242603302002 F
   0.4150387048721313    0.1110961288213730    0.2409412562847137 F
   0.0727970078587532    0.1110187768936157    0.7099946141242981 F
   0.0722626075148583    0.4682539701461793    0.2399128079414368 F
   0.7720535993576050    0.8113870024681092    0.2396986931562424 F
   0.4149955511093140    0.8106815218925477    0.7099770307540894 F
