Pr1 F3                                  
   1.00000000000000     
     4.2638476004447963   -0.0135799200940061   -0.0015014224204927
    -2.1091984940247706    3.7044724077325144    0.0034366712949440
    -0.0009424908463960    0.0023494164530938    4.6340731730225926
   Pr   F 
     1     3
Direct
  0.2500064921888542  0.3430152708396693  0.1865854052778468
  0.9180433006474638  0.6760024565563739  0.1870192703578214
  0.2504173313758896  0.3434381817462326  0.6866774904712959
  0.5841791283007243  0.0098543995972670  0.1852866457864990
 
  0.00000000E+00  0.00000000E+00  0.00000000E+00
  0.00000000E+00  0.00000000E+00  0.00000000E+00
  0.00000000E+00  0.00000000E+00  0.00000000E+00
  0.00000000E+00  0.00000000E+00  0.00000000E+00
