Ba1 B2 H1 Cl2 O1 F5                     
   1.00000000000000     
     5.7152376619600265    0.1662686501165307   -1.4373524113783660
    -1.6262012260985830    5.2758701446187564   -2.4635295968427329
    -0.0717668687026152   -0.4667005602288245    7.3109259073586195
   Ba   B    H    Cl   O    F 
     1     2     1     2     1     5
Direct
  0.5348280840656970  0.1475616419132027  0.7170506980660111
 -0.0296784071114958  0.5307790323716445  0.2400795384562587
  0.9560276733616199  0.2991377745922809  0.4646722730202987
  0.4344968856817364  0.8133935437769145 -0.0978130317349810
  0.2790646457346049 -0.0491325876038025  0.9689190878383306
  0.6551172614592740  0.6784320563797349  0.7503781505445519
  0.0424559026451356  0.4327209221916700  0.3857581775667551
  0.7229313029648483  0.1468445362247791  0.3908022164196422
  0.0017245869764112  0.3759912046796098  0.0365824301706991
  0.7202312816023676  0.5283292573684524  0.1850018734906782
  0.1072559807337194  0.2960960769612839  0.6396528451890099
  0.1262656202268611  0.7920679878520754  0.3480363538622742
 
  0.00000000E+00  0.00000000E+00  0.00000000E+00
  0.00000000E+00  0.00000000E+00  0.00000000E+00
  0.00000000E+00  0.00000000E+00  0.00000000E+00
  0.00000000E+00  0.00000000E+00  0.00000000E+00
  0.00000000E+00  0.00000000E+00  0.00000000E+00
  0.00000000E+00  0.00000000E+00  0.00000000E+00
  0.00000000E+00  0.00000000E+00  0.00000000E+00
  0.00000000E+00  0.00000000E+00  0.00000000E+00
  0.00000000E+00  0.00000000E+00  0.00000000E+00
  0.00000000E+00  0.00000000E+00  0.00000000E+00
  0.00000000E+00  0.00000000E+00  0.00000000E+00
  0.00000000E+00  0.00000000E+00  0.00000000E+00
