F  Ga Tl
 1.0000000000000000
     5.5246525542581084    0.0000000000000000    0.0000000000000000
     0.0022208076919408    8.2083518447865114    0.0000000000000000
    -2.5303438358621104   -4.1389929411893807    8.3901220389510556
 F   Ga  Tl 
  12   3   3
Cartesian
  1.6322579876614427  6.2513742888315615  2.8708490588884854
  5.0011146628223564  6.2689009325215332  1.0236849164979800
  1.8641568480756865  3.5477997116188282  6.4060299997454413
  2.0002466313849641  2.1709939060610082  3.7581406750419295
  2.7618196519748284  3.6093937747303588  0.8489478218264218
 -0.9239453228123344 -0.5312629824623273  3.6086016899936766
  1.7972276395887605  0.6881659757086421  6.3222748857215452
  2.7309433136356125  0.7607333805940449  0.8400357761037649
 -0.8961195299280356  4.8211163795705314  3.6397918184063607
 -1.2282623875938219  2.1000781911369697  5.6443075431668834
 -0.0112149769964051 -1.9662876172828128  6.5769703467751395
  0.2829343285350274  2.1712388985927213  0.0224000441516999
  2.4802217937545423  2.1291290353878001  5.4764057444582335
 -0.1899167834385105  6.2568299745202953  2.7739960812904325
 -0.3953967586025511 -1.9590820884426676  8.3426334694041895
 -0.0662464707938099  2.1567442598786108  8.2778427776039276
  2.6834950896663705 -1.9781327490960527  5.5573298476122384
 -0.7613492339423821  2.1530950665703625  2.6246291272860320
