Li7 O3 F1
1.0
   4.6271262168884277    0.0000000000000000   -0.0088224457576866
  -0.0033030227819029    3.1977648365624431    0.0011308910325171
   0.0000000000000000    0.0000000000000000    6.5994143486022949
Li O F
7 3 1
direct
   0.5980352163314819    0.5183653831481934    0.6821891069412231 Li
   0.1801575720310211    0.0175805054605007    0.4535031914710999 Li
   0.6646890640258789    0.0167003273963928    0.4196023344993591 Li
   0.1818766444921494    0.5170563459396362    0.1831783652305603 Li
   0.1807959824800491    0.0167819075286388    0.9122669100761414 Li
   0.6815738081932068    0.5170145630836487    0.1832722872495651 Li
   0.6643156409263611    0.0177638418972492    0.9483076930046082 Li
   0.4310775697231293    0.5152544379234314    0.9426108598709106 O
   0.9274790883064270    0.0153096374124289    0.1827926486730576 O
   0.4308445155620575    0.5158491134643555    0.4233500659465790 O
   0.8755996227264404    0.0180474892258644    0.6828311085700989 F
