Li3 Fe1 F5                              
   1.00000000000000     
     3.6868830500640462   -0.0015696172057908    1.2547511590895017
     1.7372434348391224    4.7306055590161833    0.9618196219582372
     0.2634606926084576    0.1179327671883392    5.2434885582258550
   Li   Fe   F 
     3     1     5
Direct
  0.1060969981353952  0.7293491446976068  0.2374705047847418
  0.6163962790696507  0.4032252869630298  0.5449196113446492
  0.4553617609952462  0.1793325731610312  0.0870157908038167
  0.2683306811133606  0.9536797471088168  0.6881105199379651
  0.1942431173264407  0.3357918144546274  0.4542787473716098
  0.0095688417990900  0.1079448839223195  0.0503887287263166
  0.5343377692445489  0.7727857087942377  0.3385657577150671
  0.7376621994143435  0.0107430125219508  0.6920545610173129
  0.3563898435618767  0.5728546849251663  0.8895541967035766
 
  0.00000000E+00  0.00000000E+00  0.00000000E+00
  0.00000000E+00  0.00000000E+00  0.00000000E+00
  0.00000000E+00  0.00000000E+00  0.00000000E+00
  0.00000000E+00  0.00000000E+00  0.00000000E+00
  0.00000000E+00  0.00000000E+00  0.00000000E+00
  0.00000000E+00  0.00000000E+00  0.00000000E+00
  0.00000000E+00  0.00000000E+00  0.00000000E+00
  0.00000000E+00  0.00000000E+00  0.00000000E+00
  0.00000000E+00  0.00000000E+00  0.00000000E+00
