Li2 Mn1 F4                              
   1.00000000000000     
     3.1792245524245875    0.0077149460791815    0.0063604719595911
    -1.6053811594569152    5.1960466910243062   -1.4174886512194327
     0.0014338922390777   -0.0646307707674820    4.8448173997033237
   Li   Mn   F 
     2     1     4
Direct
  0.7181179552490566  0.8173958131084413  0.4819224955952902
  0.4132348972016887  0.1979916269589869  0.3874809136523950
  0.0666625101328084  0.5084917171025654  0.9345407345870077
  0.5024502805984566  0.3796413825225285  0.1136731808666697
  0.9109776258171627  0.1955464172402299  0.5962788545186672
  0.6309511710475292  0.6358884473031803  0.7545328304733590
  0.2215633688650981  0.8209766258458167  0.2736742510621504
 
  0.00000000E+00  0.00000000E+00  0.00000000E+00
  0.00000000E+00  0.00000000E+00  0.00000000E+00
  0.00000000E+00  0.00000000E+00  0.00000000E+00
  0.00000000E+00  0.00000000E+00  0.00000000E+00
  0.00000000E+00  0.00000000E+00  0.00000000E+00
  0.00000000E+00  0.00000000E+00  0.00000000E+00
  0.00000000E+00  0.00000000E+00  0.00000000E+00
