Rb1 B1 F4
1.0
   3.7867631912231441    0.0000000000000000    1.7685712575912484
   1.8896200290575818    4.6052132762637479    0.9236658215522772
   0.0000000000000000    0.0000000000000000    5.0489239692687988
Rb B F
1 1 4
direct
   0.9196379780769347    0.6855883598327637    0.7452619671821594 Rb
   0.1714488118886948    0.1867689490318298    0.2444630116224289 B
   0.2935265302658080    0.4252895712852479    0.1505328863859177 F
   0.8107860684394836    0.2790692150592804    0.4834159910678864 F
   0.4371816813945770    0.9505394697189331    0.3375806212425232 F
   0.1410169303417206    0.0954036191105843    0.0083594527095556 F
