K3 Tb1 F7
1.0
   5.9471478462219238    0.0000000000000000   -0.2917620837688436
   0.2408653971405131    5.9547858882647855   -0.2836459875106813
   0.0000000000000000    0.0000000000000000    5.9679956436157227
K Tb F
3 1 7
direct
   0.8048342466354370    0.5176652073860168    0.4800733923912048 K
   0.3014775514602661    0.0204509403556585    0.4820707738399506 K
   0.3014408946037292    0.5163059234619141    0.9786076545715332 K
   0.8335337638854980    0.0473124459385872    0.9500108361244202 Tb
   0.9700929522514343    0.7991191148757935    0.1990585029125214 F
   0.5853351354598999    0.7979369163513182    0.8167167901992798 F
   0.5861647129058838    0.1775807142257690    0.1993951350450516 F
   0.0398903340101242    0.2552078962326050    0.7426540851593018 F
   0.5864174365997314    0.2587020099163055    0.7412515282630920 F
   0.0414708107709885    0.2580917477607727    0.1965674012899399 F
   0.0418740510940552    0.8010951876640320    0.7410500049591064 F
