Cs4 Be4 F12                             
   1.00000000000000     
     5.5619660449641168    0.0188095768425903   -0.0170160581829980
    -0.0316672475178652    7.8841532327636328   -0.7374822440914549
     0.0299879346619957   -0.0789920758772338    8.5549628976873375
   Cs   Be   F 
     4     4    12
Direct
  0.2064328532845921  0.6132196652130739  0.0765384078942758
  0.7065448848933806  0.4320551737147875  0.5912668303846110
  0.2067384616629793  0.0426169086167283  0.7221043128396333
  0.2066209648882664  0.1570616010102201  0.1873038831828766
  0.7074237525320065  0.8530025333851718  0.3985950090296511
  0.2074118542435843  0.6566770242017166  0.4936471440571591
  0.7066315792323347  0.8211128339083805  0.0193372342885670
  0.7077871940277717  0.3934417205136397  0.9889820145452245
  0.9585082432166327  0.7580533364161884  0.4426462737053615
  0.7097523935643485  0.3761072919356643  0.1650420102061844
  0.7057967324865999  0.6163284165389319  0.9710711700579786
  0.4762674785841813  0.9013473169726385  0.9702899441328197
  0.4789791537705764  0.3290654604235405  0.9031699572244513
  0.2066327864505690  0.4796086839010336  0.4054035825701596
  0.2079250015302530  0.6580206826546898  0.6687118305987471
  0.4568582795138726  0.7577715390134028  0.4429309824951214
  0.7069231260366698  0.8416100893425239  0.2145343552202657
  0.9374777032352020  0.9010061540197394  0.9700811352805978
  0.9360339691672204  0.3310162895930712  0.9008943231461984
  0.7074850710192218  0.0324658087182902  0.4795199820853563
 
  0.00000000E+00  0.00000000E+00  0.00000000E+00
  0.00000000E+00  0.00000000E+00  0.00000000E+00
  0.00000000E+00  0.00000000E+00  0.00000000E+00
  0.00000000E+00  0.00000000E+00  0.00000000E+00
  0.00000000E+00  0.00000000E+00  0.00000000E+00
  0.00000000E+00  0.00000000E+00  0.00000000E+00
  0.00000000E+00  0.00000000E+00  0.00000000E+00
  0.00000000E+00  0.00000000E+00  0.00000000E+00
  0.00000000E+00  0.00000000E+00  0.00000000E+00
  0.00000000E+00  0.00000000E+00  0.00000000E+00
  0.00000000E+00  0.00000000E+00  0.00000000E+00
  0.00000000E+00  0.00000000E+00  0.00000000E+00
  0.00000000E+00  0.00000000E+00  0.00000000E+00
  0.00000000E+00  0.00000000E+00  0.00000000E+00
  0.00000000E+00  0.00000000E+00  0.00000000E+00
  0.00000000E+00  0.00000000E+00  0.00000000E+00
  0.00000000E+00  0.00000000E+00  0.00000000E+00
  0.00000000E+00  0.00000000E+00  0.00000000E+00
  0.00000000E+00  0.00000000E+00  0.00000000E+00
  0.00000000E+00  0.00000000E+00  0.00000000E+00
