Cs3 Pr1 F6                              
   1.00000000000000     
     6.1588665604987431    0.1136142767185118    3.3192414187817594
     1.5219270245104695    6.7705794629696960    0.8424623753318380
    -0.0885208701028623    0.0537892574154823    7.5514532669823451
   Cs   Pr   F 
     3     1     6
Direct
  0.4214889366417782  0.5490247162591191  0.7911950873336595
  0.7815540251040494  0.5510787280440548  0.0708246629412022
  0.6016636198217733  0.0497452394268335  0.4309076832901264
  0.1016057478790846  0.5492812530004177  0.4312360865568495
  0.3474510655124879  0.7196437700203743  0.4310811995932767
  0.7851158687849593  0.7430736223175116  0.6771709628377133
  0.4179926362140489  0.3561187938694819  0.1847104207973449
  0.8547028567371751  0.3804344032994083  0.4310251707097990
  0.1696813780551679  0.3572502394405747  0.6799409364480958
  0.0334262960234489  0.7431839821433169  0.1834676901333741
 
  0.00000000E+00  0.00000000E+00  0.00000000E+00
  0.00000000E+00  0.00000000E+00  0.00000000E+00
  0.00000000E+00  0.00000000E+00  0.00000000E+00
  0.00000000E+00  0.00000000E+00  0.00000000E+00
  0.00000000E+00  0.00000000E+00  0.00000000E+00
  0.00000000E+00  0.00000000E+00  0.00000000E+00
  0.00000000E+00  0.00000000E+00  0.00000000E+00
  0.00000000E+00  0.00000000E+00  0.00000000E+00
  0.00000000E+00  0.00000000E+00  0.00000000E+00
  0.00000000E+00  0.00000000E+00  0.00000000E+00
