Li2 Mn2 F6                              
   1.00000000000000     
     2.7765728465808461   -0.0006494343700439   -0.7411472933480526
    -0.0175958560792340    5.2786426237645667   -0.1745396046813970
     0.2790776438149858   -0.4813380716913550    7.0499103287666589
   Li   Mn   F 
     2     2     6
Direct
  0.0902949476223503  0.2804118299581563  0.3250738445918495
  0.5395509803128843  0.3427282973354906  0.9188719996915098
  0.2907657745403515  0.7654320923605976  0.3136032256002387
  0.8742597818323136  0.8279871655151941  0.6394220419770492
  0.6775136498750066  0.4823361682760537  0.4495919871472551
  0.3159092480683342  0.0436842301201919  0.5213966477521910
 -0.0043101208867436  0.1131649367741333  0.8295809611066912
  0.1414074810042893  0.4767741037379875  0.1129067320673618
  0.4385827121973740  0.6570233621042862  0.7623569761545947
  0.7576310236609793 -0.0369621514492736  0.1938067281373045
 
  0.00000000E+00  0.00000000E+00  0.00000000E+00
  0.00000000E+00  0.00000000E+00  0.00000000E+00
  0.00000000E+00  0.00000000E+00  0.00000000E+00
  0.00000000E+00  0.00000000E+00  0.00000000E+00
  0.00000000E+00  0.00000000E+00  0.00000000E+00
  0.00000000E+00  0.00000000E+00  0.00000000E+00
  0.00000000E+00  0.00000000E+00  0.00000000E+00
  0.00000000E+00  0.00000000E+00  0.00000000E+00
  0.00000000E+00  0.00000000E+00  0.00000000E+00
  0.00000000E+00  0.00000000E+00  0.00000000E+00
