Ba2 F4
1.0
   4.0505509376525879    0.0000000000000000   -0.0012971480609847
  -0.0205215950539925    4.0543303880016826   -0.0036719609051950
   0.0000000000000000    0.0000000000000000    6.7500987052917480
Ba F
2 4
direct
   0.4974207878112793    0.0443840697407722    0.3711647689342499 Ba
   0.9974555969238281    0.5433129668235779    0.8826711773872374 Ba
   0.9969477057456970    0.0428895168006420    0.1269663125276566 F
   0.4974299669265747    0.0432097576558590    0.7630889415740967 F
   0.9977697134017944    0.5437927246093750    0.4906665682792663 F
   0.4969817399978638    0.5437718033790587    0.1276573389768600 F
