Na2 Y1 Tl1 F6                           
   1.00000000000000     
     6.0587714175011733    0.1220303414040115    2.2983087264770465
     2.3916749803303392    5.4380552830532762    3.4516556425553198
    -0.0711841887299467    0.1294969938595361    6.4693359155334100
   Na   Y    Tl   F 
     2     1     1     6
Direct
  0.7802261249253423  0.8459862648197509  0.2777157106028514
  0.1806412595870806  0.4682627335659711  0.6782684645770245
  0.4803826752919763  0.6569074998578680  0.9781177377952486
  0.9825518970541095  0.1563993974988057  0.4774046077679376
  0.7018038568741841  0.6192956810181293  0.1986357045185074
  0.2594900939337401  0.6956523392143416  0.7558481482618323
  0.6416435848866711  0.2484313595661254  0.1381980769710184
  0.1844122757575821  0.6570021721606583  0.2745631282983964
  0.7763815785663116  0.6568911405441052  0.6816497695924557
  0.3179897655392698  0.0656474147454438  0.8174002248912478
 
  0.00000000E+00  0.00000000E+00  0.00000000E+00
  0.00000000E+00  0.00000000E+00  0.00000000E+00
  0.00000000E+00  0.00000000E+00  0.00000000E+00
  0.00000000E+00  0.00000000E+00  0.00000000E+00
  0.00000000E+00  0.00000000E+00  0.00000000E+00
  0.00000000E+00  0.00000000E+00  0.00000000E+00
  0.00000000E+00  0.00000000E+00  0.00000000E+00
  0.00000000E+00  0.00000000E+00  0.00000000E+00
  0.00000000E+00  0.00000000E+00  0.00000000E+00
  0.00000000E+00  0.00000000E+00  0.00000000E+00
