F  Na Rb
 1.0000000000000000
     4.8736914025974105    0.0000000000000000    0.0000000000000000
    -0.0001246372513440    6.8162617638077982    0.0000000000000000
    -2.4467454821120804    1.7085691318847085    8.5167815632834749
 F   Na  Rb 
  10   9   1
Cartesian
  1.5906120936431074  5.0222777256761244  1.6873711433650469
 -0.8507298146264209  6.5710974950106591  3.5446208797853092
 -0.8530503183865632  3.1694207978283471  3.5415608274343415
  1.5844551032038854  5.0104919921437849  5.3966810151465241
 -0.8562464145521236  6.5706734385137464  6.9468630264949240
  1.5841417019810451  1.3250055867618518  5.3892446005995254
  4.0288981428867716  6.5842576662475203  0.1253711598981544
  1.5882807682942355  1.3129112597061958  1.6813483785832031
  4.0231458205158912  3.1635230934496774  0.1754309978907342
 -0.8541822778920410  3.1847358774925225  6.9004292195037333
  1.5907497233131735  6.5713685920851530  0.0538357178996324
  1.5782022983621817  3.1728527118733805  7.0007718286533329
  1.5821873357773697  6.5738794448266855  7.0422160446429238
  4.0248975301761343  1.3980123560045847  1.7667431548672645
  1.5840090668434512  6.5746219876044654  3.5387741390832095
  4.0219968856024462  4.9392477157703985  1.7735841079995844
 -0.8491858580940111  1.4013355662122955  5.3042763686067547
  1.5930565538666404  3.1692655739200899  0.0940486061093337
 -0.8583306354155442  4.9358152146558156  5.3086740516718542
  1.5900760519278347  3.1653755056482460  3.5296437307248008
