Ba Br Cl F  H  Rb
 1.0000000000000000
     4.7765542529187934    0.0000000000000000    0.0000000000000000
     0.0307493621640959    6.4152583658931608    0.0000000000000000
     0.0920337972393206   -2.1586094704203318    9.1566994214896695
 Ba  Br  Cl  F   H   Rb 
   1   1   1   4   2   2
Cartesian
  2.6871681380617383  3.1521497531987306  0.9604954939280242
  0.3181230059213541  2.9690214936425550  3.3671367865025097
  2.6796962302810514 -0.0273120615665114  1.5526877305673561
  0.3815783156844808  1.5421024373306491  9.0119941053980579
  0.3580549200898910  2.0879114364714386  6.6208164490257326
  0.3290262865443182 -1.0238867798929656  5.1710643970278527
  2.7530697681952256 -0.1694607025954431  7.8476095338880052
  0.3400551227002611  4.5791078629665103  4.5092477291971083
  0.3778258758558001  1.7775314122681625  7.6164845792164249
  2.7260236170046297  0.6847129645582339  5.1921124727747303
  0.3678167508163915 -1.6807259306376023  8.0258012933207237
