Sr2 Y1 Ag1 F8
1.0
   5.2787785530090323    0.0000000000000000   -2.3404903411865243
  -1.0412103896954723    5.1701149471999894   -2.3300390243530278
   0.0000000000000000    0.0000000000000000    7.0949001312255859
Sr Y Ag F
2 1 1 8
direct
   0.3303184211254120    0.8481147289276123    0.4274558722972870 Sr
   0.0807530730962753    0.0980239734053612    0.9276262521743774 Sr
   0.5808205008506775    0.5981408357620239    0.9272569417953491 Y
   0.8300529718399048    0.3482525050640107    0.4276608824729919 Ag
   0.9369639158248901    0.4835168421268464    0.1569487154483795 F
   0.2358627468347549    0.2421275377273560    0.6973349452018738 F
   0.4535652995109558    0.4837352931499481    0.1563428044319152 F
   0.6956219673156738    0.7247067689895630    0.6985046863555908 F
   0.9367753267288208    0.9430603981018068    0.1580320298671722 F
   0.6943528056144714    0.2419764548540115    0.6982042789459229 F
   0.2351883351802826    0.7233808040618896    0.6975237131118774 F
   0.4557260572910309    0.9433810114860535    0.1570211648941039 F
