Cs4 Na2 Ti2 O2 F10
1.0
   5.9619855880737305    0.0000000000000000    0.0061517693102360
   0.0169680113163461    8.2308088879046615   -0.0205377116799343
   0.0000000000000000    0.0000000000000000    8.1280593872070312
Cs Na Ti O F
4 2 2 2 10
direct
   0.9107936620712280    0.0933912321925163    0.7567465901374817 Cs
   0.4100697934627534    0.8440507054328917    0.0675282478332520 Cs
   0.9103210568428040    0.5933406352996826    0.3816155493259430 Cs
   0.4100706279277802    0.3432077467441558    0.0679140388965607 Cs
   0.4106821715831757    0.8438180088996887    0.5676037073135376 Na
   0.4107787609100342    0.3426029086112976    0.5679958462715150 Na
   0.9099223613739014    0.0937100127339363    0.3190476596355438 Ti
   0.9104799032211304    0.5937655568122863    0.8163936734199524 Ti
   0.9101903438568115    0.0935451984405518    0.1094094365835190 O
   0.9109227061271667    0.5936629176139832    0.0265940651297569 O
   0.6881912946701050    0.9328022599220276    0.3828277885913849 F
   0.1324512213468552    0.4344630539417266    0.7537626028060913 F
   0.6877437829971313    0.2521322965621948    0.3810404837131500 F
   0.4108211398124695    0.0937482565641403    0.7468624711036682 F
   0.4103283286094666    0.5926367044448851    0.3892396986484528 F
   0.1321309208869934    0.7536572217941284    0.7519924640655518 F
   0.6902924180030823    0.7533587217330933    0.7529123425483704 F
   0.1323427408933640    0.2530058324337006    0.3817273080348969 F
   0.1315167993307114    0.9342816472053527    0.3824670314788818 F
   0.6877043843269348    0.4336012303829193    0.7544563412666321 F
