Rb2 Mg1 Sb1 F7                          
   1.00000000000000     
     4.9006157036828855   -0.2276235456842002    4.7564840808430162
     0.9156910664569471    5.3856712941076532    2.0043699483698449
    -0.2631936916218846   -0.3394323828570920    7.4530361593577075
   Rb   Mg   Sb   F 
     2     1     1     7
Direct
  0.0469688570086308  0.4702152188579444  0.8027616315676329
  0.5761361815761110  0.9432020195196412  0.2700289360416557
  0.3045901715651459  0.6126254815928628  0.1342594027348672
  0.7719778318523409  0.1343319446441579  0.6132601654612858
  0.4958193495509655  0.4770664152232817  0.2695662051496601
  0.1135330421231423  0.7314351447800295  0.0122878879706631
  0.9933656693293146  0.0243563409774165  0.7146053989685657
  0.5605034087159660  0.3511647789385952  0.8963114441255027
  0.0709534136096888  0.8669839525887709  0.3776127512373450
  0.0412992812855261  0.3772344430552615  0.3884679201114139
  0.5833832171733847  0.8428966513892694  0.8917330463271489
 
  0.00000000E+00  0.00000000E+00  0.00000000E+00
  0.00000000E+00  0.00000000E+00  0.00000000E+00
  0.00000000E+00  0.00000000E+00  0.00000000E+00
  0.00000000E+00  0.00000000E+00  0.00000000E+00
  0.00000000E+00  0.00000000E+00  0.00000000E+00
  0.00000000E+00  0.00000000E+00  0.00000000E+00
  0.00000000E+00  0.00000000E+00  0.00000000E+00
  0.00000000E+00  0.00000000E+00  0.00000000E+00
  0.00000000E+00  0.00000000E+00  0.00000000E+00
  0.00000000E+00  0.00000000E+00  0.00000000E+00
  0.00000000E+00  0.00000000E+00  0.00000000E+00
