Na1 Ta1 O1 F4                           
   1.00000000000000     
     3.6506758200456972   -0.0036097423434623    1.3033302554154595
     1.4615065961297191    5.3245878065993404    1.6906502820914930
     0.0009912171213779   -0.0036205967968448    5.7823538166829520
   Na   Ta   O    F 
     1     1     1     4
Direct
  0.5756086607717599  0.3046480826485257  0.6421040748870529
  0.0737449206916598  0.8046441099268087  0.1426131001674366
  0.5764310609527559  0.8043778435667203  0.1416913778258693
  0.8455825139868169  0.0348573294302375  0.3731719445155628
  0.0748877963122814  0.5194953052931464  0.4292537248303590
  0.3064804166781509  0.5738416478039847  0.9127442026909431
  0.0760212267545894  0.0904140827351961  0.8567913880481693
 
  0.00000000E+00  0.00000000E+00  0.00000000E+00
  0.00000000E+00  0.00000000E+00  0.00000000E+00
  0.00000000E+00  0.00000000E+00  0.00000000E+00
  0.00000000E+00  0.00000000E+00  0.00000000E+00
  0.00000000E+00  0.00000000E+00  0.00000000E+00
  0.00000000E+00  0.00000000E+00  0.00000000E+00
  0.00000000E+00  0.00000000E+00  0.00000000E+00
