Be4 Zn2 F12
1.0
   5.2306904792785645    0.0000000000000000    0.7679642438888551
   0.5514418061715743    5.9082275921760408   -0.6629554629325869
   0.0000000000000000    0.0000000000000000    7.5750703811645508
Be Zn F
4 2 12
direct
   0.3693764507770538    0.1068287715315819    0.0259763523936272 Be
   0.9195982217788696    0.8966634869575500    0.4773578643798828 Be
   0.8560829162597656    0.5568810701370239    0.7339631319046021 Be
   0.3054201006889343    0.7707721590995789    0.2793188989162445 Be
   0.8170846700668335    0.4481323659420013    0.1443048119544983 Zn
   0.4069859981536865    0.2176406979560852    0.6148956418037415 Zn
   0.8538314104080200    0.7933242917060853    0.6495466828346252 F
   0.7146460413932800    0.0762516036629677    0.4490807950496674 F
   0.1380642056465149    0.2623068988323212    0.1355859041213989 F
   0.6003987789154053    0.4566968679428101    0.7106298804283142 F
   0.8861396908760071    0.6065172553062439    0.9327278733253479 F
   0.5071736574172974    0.5913680195808411    0.3096450865268707 F
   0.0889122262597084    0.4038701057434082    0.6229946613311768 F
   0.0081159956753254    0.7028610110282898    0.3023981153964996 F
   0.2151136696338654    0.9641145467758180    0.4539033174514771 F
   0.3412692546844482    0.0580130517482758    0.8256527185440063 F
   0.6263787150382996    0.2066477239131928    0.0486753508448601 F
   0.3697872757911682    0.8703049421310425    0.1046453565359116 F
