W1 F6
1.0
   4.8957281112670898    0.0000000000000000    0.8793282508850103
   1.3003729901282668    4.1349675316584511    2.5367414951324463
   0.0000000000000000    0.0000000000000000    5.0351786613464355
W F
1 6
direct
   0.6990322470664979    0.6884254217147827    0.3504243791103363 W
   0.9293304681777954    0.3080541789531708    0.6543125510215759 F
   0.4719359576702118    0.4603874087333679    0.3507445156574249 F
   0.4699026942253113    0.0677880272269249    0.0462057068943978 F
   0.9274339675903320    0.9163091778755188    0.3493289351463318 F
   0.9295338988304140    0.6135507225990294    0.0435647480189800 F
   0.4693745970726013    0.7630668878555298    0.6566773056983948 F
