K3 Li1 S1 O4 F2                         
   1.00000000000000     
     5.1999435904872247    0.0047860760022907    0.0022156960542081
    -0.1412231885472670    5.5672169603276433   -2.4090065227421413
    -0.0464714279082809   -0.0993461461852358    6.9741220637117127
   K    Li   S    O    F 
     3     1     1     4     2
Direct
  0.7086469345290600  0.6664972839747887  0.4238042234446134
  0.7734508304227597  0.3232058147501076  0.7828276983758147
  0.2201271898415935  0.1244276802518059  0.3296155619716461
  0.7575472192368470  0.0256685785083546  0.0790620490380296
  0.2363825967442312  0.8047477288387028  0.7807190335655867
  0.4428517043207006  0.9695948787186655  0.9189974276446827
  0.3400744703121358  0.5574259749895590  0.6634402085639494
  0.1468358405578652  0.9027996866956348  0.6280656845421234
  0.0168897507343503  0.7862085309881521  0.9120083659538395
  0.7103304633053034  0.0484444939656867  0.3548965255828750
  0.9000853761033224  0.3217280639427566  0.1308513880782388
 
  0.00000000E+00  0.00000000E+00  0.00000000E+00
  0.00000000E+00  0.00000000E+00  0.00000000E+00
  0.00000000E+00  0.00000000E+00  0.00000000E+00
  0.00000000E+00  0.00000000E+00  0.00000000E+00
  0.00000000E+00  0.00000000E+00  0.00000000E+00
  0.00000000E+00  0.00000000E+00  0.00000000E+00
  0.00000000E+00  0.00000000E+00  0.00000000E+00
  0.00000000E+00  0.00000000E+00  0.00000000E+00
  0.00000000E+00  0.00000000E+00  0.00000000E+00
  0.00000000E+00  0.00000000E+00  0.00000000E+00
  0.00000000E+00  0.00000000E+00  0.00000000E+00
