Na2 Ti1 F6
1.0
   4.3318352699279785    0.0000000000000000   -0.0141618577763436
  -0.0307760379621852    4.7224982716236017   -2.7479267120361324
   0.0000000000000000    0.0000000000000000    5.4716687202453613
Na Ti F
2 1 6
direct
   0.7382007837295532    0.9545453190803528    0.6143904924392700 Na
   0.0881652534008026    0.2898913025856018    0.2817318737506866 Na
   0.4143512248992920    0.6222618818283080    0.9479255080223083 Ti
   0.6507884263992310    0.4559207260608673    0.6144816279411316 F
   0.1767775714397430    0.7895156741142273    0.7813411951065063 F
   0.6523239016532898    0.4548881649971008    0.1160123944282532 F
   0.6547651290893555    0.9553414583206176    0.1157317608594894 F
   0.1754321157932281    0.2890134751796722    0.7820876240730286 F
   0.1789881289005280    0.7886059284210205    0.2826499640941620 F
