Cs2 Pb1 F4                              
   1.00000000000000     
     3.8996743428653993    0.0021507449715045   -0.0095841921940857
     1.9500393051211304    5.7207348909077114    2.8284038736715558
     0.0168941097809552    0.1069555435146875    7.6786465843302247
   Cs   Pb   F 
     2     1     4
Direct
  0.9353886825616861  0.0867684404173197  0.8782426363247499
  0.6148610750626112  0.7248532906890447  0.5299650497925392
  0.2738866470790959  0.4059648587169125  0.2041289227186913
  0.3285149874511827  0.3011484292836229  0.5487634689454889
  0.6351986396385746  0.6878153940145864  0.1465270842486290
  0.9158354491342210  0.1233363323885223  0.2617208844903749
  0.2246118599425321  0.5088387244964580  0.8597680833547101
 
  0.00000000E+00  0.00000000E+00  0.00000000E+00
  0.00000000E+00  0.00000000E+00  0.00000000E+00
  0.00000000E+00  0.00000000E+00  0.00000000E+00
  0.00000000E+00  0.00000000E+00  0.00000000E+00
  0.00000000E+00  0.00000000E+00  0.00000000E+00
  0.00000000E+00  0.00000000E+00  0.00000000E+00
  0.00000000E+00  0.00000000E+00  0.00000000E+00
