Na2 Li1 Fe1 F6
1.0
   5.4937577247619620    0.0000000000000000    0.0046607335098086
   2.7321745298595492    3.9037192183248890    2.7465155124664316
   0.0000000000000000    0.0000000000000000    5.5308475494384766
Na Li Fe F
2 1 1 6
direct
   0.2309620231389999    0.2814199924468995    0.2130870819091797 Na
   0.7374742627143860    0.2891561686992645    0.7042109370231627 Na
   0.4847041964530945    0.7871342301368714    0.9574398398399353 Li
   0.9859330654144285    0.7868529558181764    0.4580591320991515 Fe
   0.6599436402320861    0.8647449016571046    0.2200204282999038 F
   0.2248585969209670    0.3008861839771271    0.6211791634559630 F
   0.1459160149097442    0.8673772215843202    0.1331348866224288 F
   0.3101854026317595    0.7097744345664979    0.6942477226257322 F
   0.8245630264282227    0.7071536183357239    0.7815540432929990 F
   0.7453596591949463    0.2739491760730744    0.2951240241527556 F
