Cd F  Ni Rb
 1.0000000000000000
     4.3692226473852660    0.0000000000000000    0.0000000000000000
     0.0071461960427674    6.1060138256413214    0.0000000000000000
     0.0090317986861309    0.0280291339479279    6.1091442839243584
 Cd  F   Ni  Rb 
   1   6   1   2
Cartesian
  0.9635612439051364  3.4231260647785473  3.2888453596543745
  3.1393742577568324  0.3558259120622999  0.2391509435576661
  3.1504565950833765  3.4250411229090667  3.2868557348937846
  0.9661713658617691  1.8162945232405188  4.9068064671257678
  0.9602503755913387  1.8056910552177081  1.6790304619801140
  0.9681161524113603  5.0414627863481716  4.9046963142180768
  0.9616697906296332  5.0310171563723394  1.6752294557459602
  0.9528914163102374  0.3580058350542492  0.2355853040337295
  3.1429379503777093  0.3705165985611725  3.2892357106322940
  3.1426985864550465  3.4060753488338871  0.2359955002805824
