Li2 Mn2 F8                              
   1.00000000000000     
     4.4368856377753687    0.0014471795234218   -1.9709986554188295
    -0.8921907457119177    4.3427147143835558   -1.9787361547434013
    -0.0358549210446213   -0.0510330003139094    5.8578732087315180
   Li   Mn   F 
     2     2     8
Direct
  0.8861233939005092  0.7195227673945590  0.5878327961419467
  0.1340632377841373  0.4693833994847905  0.0868397064686353
  0.6349733029377302  0.9687215997996644  0.0872164882723667
  0.3848989436966870  0.2186495276537077  0.5872426573744285
  0.0110361222998934  0.3255850724812061  0.3374569974682750
  0.0094448336457930  0.8603434329272225  0.3378815452568421
  0.2773285436299194  0.5937567320461267  0.8369356688327229
  0.7432101473339516  0.5954365075642385  0.8379198476386481
  0.2779911768865392  0.0945396774980009  0.8382169906142372
  0.5113315167494389  0.3266897394837335  0.3380985371715702
  0.5088918321654912  0.8605544964004884  0.3366030219055633
  0.7428651140596961  0.0949368214290309  0.8374165521928568
 
  0.00000000E+00  0.00000000E+00  0.00000000E+00
  0.00000000E+00  0.00000000E+00  0.00000000E+00
  0.00000000E+00  0.00000000E+00  0.00000000E+00
  0.00000000E+00  0.00000000E+00  0.00000000E+00
  0.00000000E+00  0.00000000E+00  0.00000000E+00
  0.00000000E+00  0.00000000E+00  0.00000000E+00
  0.00000000E+00  0.00000000E+00  0.00000000E+00
  0.00000000E+00  0.00000000E+00  0.00000000E+00
  0.00000000E+00  0.00000000E+00  0.00000000E+00
  0.00000000E+00  0.00000000E+00  0.00000000E+00
  0.00000000E+00  0.00000000E+00  0.00000000E+00
  0.00000000E+00  0.00000000E+00  0.00000000E+00
