K1 Dy1 Be2 F8
1.0
   5.4561562538146973    0.0000000000000000   -0.0052303033880889
  -2.7225877899950026    4.7252655081075021    0.0029610008932658
   0.0000000000000000    0.0000000000000000    7.7510986328125000
K Dy Be F
1 1 2 8
direct
   0.3396503627300262    0.5107654333114625    0.0853463262319565 K
   0.3387611210346222    0.5098664164543153    0.5856918692588806 Dy
   0.6730327010154724    0.1759357303380966    0.3243106901645660 Be
   0.0048090484924614    0.8442277312278748    0.8465806841850281 Be
   0.1621315628290176    0.6883230209350586    0.7669711112976074 F
   0.6925804615020752    0.6869178414344788    0.7672629356384277 F
   0.9846792817115784    0.3327813148498535    0.4042816162109375 F
   0.6728339195251465    0.1770673543214798    0.1309131234884262 F
   0.5177049040794373    0.3338688611984253    0.4061488509178162 F
   0.1611128747463226    0.1559460312128067    0.7674397826194763 F
   0.0061035156250000    0.8433168530464172    0.0403986871242523 F
   0.5174436569213867    0.8650553822517395    0.4052105545997620 F
