Cl F  Rb
 1.0000000000000000
     4.8111629541476040    0.0000000000000000    0.0000000000000000
     0.0036239991766511    8.3319667016762189    0.0000000000000000
    -2.4056972273499846    0.0603277664463990    9.3364705740336529
 Cl  F   Rb 
   2   4   6
Cartesian
  1.7065951471329535  5.3602983631548033  1.3761629913939177
 -0.6940810940703607  3.4584150181931110  5.7405493794804059
  1.7033347651286455  1.4890501758798078  2.5335274960744627
 -0.6979176521436532  7.3425058742491478  4.5954975103150817
  4.1144408935903511  1.5648720078954588  0.0808735630263801
  1.7026420519195895  7.2645971563077278  7.0369381068283321
 -0.7022806661475627  2.3824455174974104  8.9389836792453430
  4.1088053938693854  3.0438654281812809  2.3975830669958609
 -0.6946932607462061  6.4983446277254151  7.5316672894972170
  4.1197387744285114  7.8653436920004047  1.8865515826083208
  1.7130244439176343  0.9753081552891519  5.2344426154007468
  1.7105212740642430  5.7880928598019317  4.7091678682390308
