Li1 Mn1 F3
1.0
   3.0101037025451660    0.0000000000000000   -0.9098517298698422
  -0.5037413114334656    3.7731043533835154   -1.6015440225601196
   0.0000000000000000    0.0000000000000000    5.4449796676635742
Li Mn F
1 1 3
direct
   0.3949889838695526    0.0496350005269051    0.4123747944831849 Li
   0.0836903080344200    0.7422463893890382    0.7902892827987671 Mn
   0.7409577965736389    0.8950540423393251    0.1007105112075806 F
   0.0398261882364750    0.1966217458248138    0.7016116976737976 F
   0.4328852593898774    0.5895694494247438    0.4887341558933259 F
